# framework
1.000000
 51.6985999999999990   0.0000000000000000         0.0000000000
  0.0000000000000032  51.6985999999999990         0.0000000000
  0.0000000000000032   0.0000000000000032        51.6986000000
Zn O O C C C C C H C O C H H H 
256 64 768 384 384 384 384 384 1152 384 384 384 384 768 768 
Direct
0.1466600000000000 0.1466600000000000 0.1033400000000000
0.3533400000000000 0.3533400000000000 0.1033400000000000
0.3533400000000000 0.1466600000000000 0.3966600000000001
0.1466600000000000 0.3533400000000000 0.3966600000000001
0.1033400000000000 0.1466600000000000 0.1466600000000000
0.1033400000000000 0.3533400000000000 0.3533400000000000
0.3966600000000001 0.3533400000000000 0.1466600000000000
0.3966600000000001 0.1466600000000000 0.3533400000000000
0.1466600000000000 0.1033400000000000 0.1466600000000000
0.3533400000000000 0.1033400000000000 0.3533400000000000
0.1466600000000000 0.3966600000000001 0.3533400000000000
0.3533400000000000 0.3966600000000001 0.1466600000000000
0.1466600000000000 0.1466600000000000 0.3966600000000001
0.3533400000000000 0.3533400000000000 0.3966600000000001
0.1466600000000000 0.3533400000000000 0.1033400000000000
0.3533400000000000 0.1466600000000000 0.1033400000000000
0.1466600000000000 0.1033400000000000 0.3533400000000000
0.3533400000000000 0.1033400000000000 0.1466600000000000
0.3533400000000000 0.3966600000000001 0.3533400000000000
0.1466600000000000 0.3966600000000001 0.1466600000000000
0.1033400000000000 0.1466600000000000 0.3533400000000000
0.1033400000000000 0.3533400000000000 0.1466600000000000
0.3966600000000001 0.1466600000000000 0.1466600000000000
0.3966600000000001 0.3533400000000000 0.3533400000000000
0.1033400000000000 0.3966600000000001 0.3966600000000001
0.1033400000000000 0.1033400000000000 0.1033400000000000
0.3966600000000001 0.1033400000000000 0.3966600000000001
0.3966600000000001 0.3966600000000001 0.1033400000000000
0.1033400000000000 0.3966600000000001 0.1033400000000000
0.1033400000000000 0.1033400000000000 0.3966600000000001
0.3966600000000001 0.3966600000000001 0.3966600000000001
0.3966600000000001 0.1033400000000000 0.1033400000000000
0.1466600000000000 0.1466600000000000 0.6033400000000000
0.3533400000000000 0.3533400000000000 0.6033400000000000
0.3533400000000000 0.1466600000000000 0.8966600000000000
0.1466600000000000 0.3533400000000000 0.8966600000000000
0.1033400000000000 0.1466600000000000 0.6466600000000000
0.1033400000000000 0.3533400000000000 0.8533400000000000
0.3966600000000001 0.3533400000000000 0.6466600000000000
0.3966600000000001 0.1466600000000000 0.8533400000000000
0.1466600000000000 0.1033400000000000 0.6466600000000000
0.3533400000000000 0.1033400000000000 0.8533400000000000
0.1466600000000000 0.3966600000000001 0.8533400000000000
0.3533400000000000 0.3966600000000001 0.6466600000000000
0.1466600000000000 0.1466600000000000 0.8966600000000000
0.3533400000000000 0.3533400000000000 0.8966600000000000
0.1466600000000000 0.3533400000000000 0.6033400000000000
0.3533400000000000 0.1466600000000000 0.6033400000000000
0.1466600000000000 0.1033400000000000 0.8533400000000000
0.3533400000000000 0.1033400000000000 0.6466600000000000
0.3533400000000000 0.3966600000000001 0.8533400000000000
0.1466600000000000 0.3966600000000001 0.6466600000000000
0.1033400000000000 0.1466600000000000 0.8533400000000000
0.1033400000000000 0.3533400000000000 0.6466600000000000
0.3966600000000001 0.1466600000000000 0.6466600000000000
0.3966600000000001 0.3533400000000000 0.8533400000000000
0.1033400000000000 0.3966600000000001 0.8966600000000000
0.1033400000000000 0.1033400000000000 0.6033400000000000
0.3966600000000001 0.1033400000000000 0.8966600000000000
0.3966600000000001 0.3966600000000001 0.6033400000000000
0.1033400000000000 0.3966600000000001 0.6033400000000000
0.1033400000000000 0.1033400000000000 0.8966600000000000
0.3966600000000001 0.3966600000000001 0.8966600000000000
0.3966600000000001 0.1033400000000000 0.6033400000000000
0.1466600000000000 0.6466600000000000 0.1033400000000000
0.3533400000000000 0.8533400000000000 0.1033400000000000
0.3533400000000000 0.6466600000000000 0.3966600000000001
0.1466600000000000 0.8533400000000000 0.3966600000000001
0.1033400000000000 0.6466600000000000 0.1466600000000000
0.1033400000000000 0.8533400000000000 0.3533400000000000
0.3966600000000001 0.8533400000000000 0.1466600000000000
0.3966600000000001 0.6466600000000000 0.3533400000000000
0.1466600000000000 0.6033400000000000 0.1466600000000000
0.3533400000000000 0.6033400000000000 0.3533400000000000
0.1466600000000000 0.8966600000000000 0.3533400000000000
0.3533400000000000 0.8966600000000000 0.1466600000000000
0.1466600000000000 0.6466600000000000 0.3966600000000001
0.3533400000000000 0.8533400000000000 0.3966600000000001
0.1466600000000000 0.8533400000000000 0.1033400000000000
0.3533400000000000 0.6466600000000000 0.1033400000000000
0.1466600000000000 0.6033400000000000 0.3533400000000000
0.3533400000000000 0.6033400000000000 0.1466600000000000
0.3533400000000000 0.8966600000000000 0.3533400000000000
0.1466600000000000 0.8966600000000000 0.1466600000000000
0.1033400000000000 0.6466600000000000 0.3533400000000000
0.1033400000000000 0.8533400000000000 0.1466600000000000
0.3966600000000001 0.6466600000000000 0.1466600000000000
0.3966600000000001 0.8533400000000000 0.3533400000000000
0.1033400000000000 0.8966600000000000 0.3966600000000001
0.1033400000000000 0.6033400000000000 0.1033400000000000
0.3966600000000001 0.6033400000000000 0.3966600000000001
0.3966600000000001 0.8966600000000000 0.1033400000000000
0.1033400000000000 0.8966600000000000 0.1033400000000000
0.1033400000000000 0.6033400000000000 0.3966600000000001
0.3966600000000001 0.8966600000000000 0.3966600000000001
0.3966600000000001 0.6033400000000000 0.1033400000000000
0.1466600000000000 0.6466600000000000 0.6033400000000000
0.3533400000000000 0.8533400000000000 0.6033400000000000
0.3533400000000000 0.6466600000000000 0.8966600000000000
0.1466600000000000 0.8533400000000000 0.8966600000000000
0.1033400000000000 0.6466600000000000 0.6466600000000000
0.1033400000000000 0.8533400000000000 0.8533400000000000
0.3966600000000001 0.8533400000000000 0.6466600000000000
0.3966600000000001 0.6466600000000000 0.8533400000000000
0.1466600000000000 0.6033400000000000 0.6466600000000000
0.3533400000000000 0.6033400000000000 0.8533400000000000
0.1466600000000000 0.8966600000000000 0.8533400000000000
0.3533400000000000 0.8966600000000000 0.6466600000000000
0.1466600000000000 0.6466600000000000 0.8966600000000000
0.3533400000000000 0.8533400000000000 0.8966600000000000
0.1466600000000000 0.8533400000000000 0.6033400000000000
0.3533400000000000 0.6466600000000000 0.6033400000000000
0.1466600000000000 0.6033400000000000 0.8533400000000000
0.3533400000000000 0.6033400000000000 0.6466600000000000
0.3533400000000000 0.8966600000000000 0.8533400000000000
0.1466600000000000 0.8966600000000000 0.6466600000000000
0.1033400000000000 0.6466600000000000 0.8533400000000000
0.1033400000000000 0.8533400000000000 0.6466600000000000
0.3966600000000001 0.6466600000000000 0.6466600000000000
0.3966600000000001 0.8533400000000000 0.8533400000000000
0.1033400000000000 0.8966600000000000 0.8966600000000000
0.1033400000000000 0.6033400000000000 0.6033400000000000
0.3966600000000001 0.6033400000000000 0.8966600000000000
0.3966600000000001 0.8966600000000000 0.6033400000000000
0.1033400000000000 0.8966600000000000 0.6033400000000000
0.1033400000000000 0.6033400000000000 0.8966600000000000
0.3966600000000001 0.8966600000000000 0.8966600000000000
0.3966600000000001 0.6033400000000000 0.6033400000000000
0.6466600000000000 0.1466600000000000 0.1033400000000000
0.8533400000000000 0.3533400000000000 0.1033400000000000
0.8533400000000000 0.1466600000000000 0.3966600000000001
0.6466600000000000 0.3533400000000000 0.3966600000000001
0.6033400000000000 0.1466600000000000 0.1466600000000000
0.6033400000000000 0.3533400000000000 0.3533400000000000
0.8966600000000000 0.3533400000000000 0.1466600000000000
0.8966600000000000 0.1466600000000000 0.3533400000000000
0.6466600000000000 0.1033400000000000 0.1466600000000000
0.8533400000000000 0.1033400000000000 0.3533400000000000
0.6466600000000000 0.3966600000000001 0.3533400000000000
0.8533400000000000 0.3966600000000001 0.1466600000000000
0.6466600000000000 0.1466600000000000 0.3966600000000001
0.8533400000000000 0.3533400000000000 0.3966600000000001
0.6466600000000000 0.3533400000000000 0.1033400000000000
0.8533400000000000 0.1466600000000000 0.1033400000000000
0.6466600000000000 0.1033400000000000 0.3533400000000000
0.8533400000000000 0.1033400000000000 0.1466600000000000
0.8533400000000000 0.3966600000000001 0.3533400000000000
0.6466600000000000 0.3966600000000001 0.1466600000000000
0.6033400000000000 0.1466600000000000 0.3533400000000000
0.6033400000000000 0.3533400000000000 0.1466600000000000
0.8966600000000000 0.1466600000000000 0.1466600000000000
0.8966600000000000 0.3533400000000000 0.3533400000000000
0.6033400000000000 0.3966600000000001 0.3966600000000001
0.6033400000000000 0.1033400000000000 0.1033400000000000
0.8966600000000000 0.1033400000000000 0.3966600000000001
0.8966600000000000 0.3966600000000001 0.1033400000000000
0.6033400000000000 0.3966600000000001 0.1033400000000000
0.6033400000000000 0.1033400000000000 0.3966600000000001
0.8966600000000000 0.3966600000000001 0.3966600000000001
0.8966600000000000 0.1033400000000000 0.1033400000000000
0.6466600000000000 0.1466600000000000 0.6033400000000000
0.8533400000000000 0.3533400000000000 0.6033400000000000
0.8533400000000000 0.1466600000000000 0.8966600000000000
0.6466600000000000 0.3533400000000000 0.8966600000000000
0.6033400000000000 0.1466600000000000 0.6466600000000000
0.6033400000000000 0.3533400000000000 0.8533400000000000
0.8966600000000000 0.3533400000000000 0.6466600000000000
0.8966600000000000 0.1466600000000000 0.8533400000000000
0.6466600000000000 0.1033400000000000 0.6466600000000000
0.8533400000000000 0.1033400000000000 0.8533400000000000
0.6466600000000000 0.3966600000000001 0.8533400000000000
0.8533400000000000 0.3966600000000001 0.6466600000000000
0.6466600000000000 0.1466600000000000 0.8966600000000000
0.8533400000000000 0.3533400000000000 0.8966600000000000
0.6466600000000000 0.3533400000000000 0.6033400000000000
0.8533400000000000 0.1466600000000000 0.6033400000000000
0.6466600000000000 0.1033400000000000 0.8533400000000000
0.8533400000000000 0.1033400000000000 0.6466600000000000
0.8533400000000000 0.3966600000000001 0.8533400000000000
0.6466600000000000 0.3966600000000001 0.6466600000000000
0.6033400000000000 0.1466600000000000 0.8533400000000000
0.6033400000000000 0.3533400000000000 0.6466600000000000
0.8966600000000000 0.1466600000000000 0.6466600000000000
0.8966600000000000 0.3533400000000000 0.8533400000000000
0.6033400000000000 0.3966600000000001 0.8966600000000000
0.6033400000000000 0.1033400000000000 0.6033400000000000
0.8966600000000000 0.1033400000000000 0.8966600000000000
0.8966600000000000 0.3966600000000001 0.6033400000000000
0.6033400000000000 0.3966600000000001 0.6033400000000000
0.6033400000000000 0.1033400000000000 0.8966600000000000
0.8966600000000000 0.3966600000000001 0.8966600000000000
0.8966600000000000 0.1033400000000000 0.6033400000000000
0.6466600000000000 0.6466600000000000 0.1033400000000000
0.8533400000000000 0.8533400000000000 0.1033400000000000
0.8533400000000000 0.6466600000000000 0.3966600000000001
0.6466600000000000 0.8533400000000000 0.3966600000000001
0.6033400000000000 0.6466600000000000 0.1466600000000000
0.6033400000000000 0.8533400000000000 0.3533400000000000
0.8966600000000000 0.8533400000000000 0.1466600000000000
0.8966600000000000 0.6466600000000000 0.3533400000000000
0.6466600000000000 0.6033400000000000 0.1466600000000000
0.8533400000000000 0.6033400000000000 0.3533400000000000
0.6466600000000000 0.8966600000000000 0.3533400000000000
0.8533400000000000 0.8966600000000000 0.1466600000000000
0.6466600000000000 0.6466600000000000 0.3966600000000001
0.8533400000000000 0.8533400000000000 0.3966600000000001
0.6466600000000000 0.8533400000000000 0.1033400000000000
0.8533400000000000 0.6466600000000000 0.1033400000000000
0.6466600000000000 0.6033400000000000 0.3533400000000000
0.8533400000000000 0.6033400000000000 0.1466600000000000
0.8533400000000000 0.8966600000000000 0.3533400000000000
0.6466600000000000 0.8966600000000000 0.1466600000000000
0.6033400000000000 0.6466600000000000 0.3533400000000000
0.6033400000000000 0.8533400000000000 0.1466600000000000
0.8966600000000000 0.6466600000000000 0.1466600000000000
0.8966600000000000 0.8533400000000000 0.3533400000000000
0.6033400000000000 0.8966600000000000 0.3966600000000001
0.6033400000000000 0.6033400000000000 0.1033400000000000
0.8966600000000000 0.6033400000000000 0.3966600000000001
0.8966600000000000 0.8966600000000000 0.1033400000000000
0.6033400000000000 0.8966600000000000 0.1033400000000000
0.6033400000000000 0.6033400000000000 0.3966600000000001
0.8966600000000000 0.8966600000000000 0.3966600000000001
0.8966600000000000 0.6033400000000000 0.1033400000000000
0.6466600000000000 0.6466600000000000 0.6033400000000000
0.8533400000000000 0.8533400000000000 0.6033400000000000
0.8533400000000000 0.6466600000000000 0.8966600000000000
0.6466600000000000 0.8533400000000000 0.8966600000000000
0.6033400000000001 0.6466600000000000 0.6466600000000000
0.6033400000000001 0.8533400000000000 0.8533400000000000
0.8966600000000000 0.8533400000000000 0.6466600000000000
0.8966600000000000 0.6466600000000000 0.8533400000000000
0.6466600000000000 0.6033400000000000 0.6466600000000000
0.8533400000000000 0.6033400000000000 0.8533400000000000
0.6466600000000000 0.8966600000000000 0.8533400000000000
0.8533400000000000 0.8966600000000000 0.6466600000000000
0.6466600000000000 0.6466600000000000 0.8966600000000000
0.8533400000000000 0.8533400000000000 0.8966600000000000
0.6466600000000000 0.8533400000000000 0.6033400000000000
0.8533400000000000 0.6466600000000000 0.6033400000000000
0.6466600000000000 0.6033400000000000 0.8533400000000000
0.8533400000000000 0.6033400000000000 0.6466600000000000
0.8533400000000000 0.8966600000000000 0.8533400000000000
0.6466600000000000 0.8966600000000000 0.6466600000000000
0.6033400000000001 0.6466600000000000 0.8533400000000000
0.6033400000000001 0.8533400000000000 0.6466600000000000
0.8966600000000000 0.6466600000000000 0.6466600000000000
0.8966600000000000 0.8533400000000000 0.8533400000000000
0.6033400000000001 0.8966600000000000 0.8966600000000000
0.6033400000000001 0.6033400000000000 0.6033400000000000
0.8966600000000000 0.6033400000000000 0.8966600000000000
0.8966600000000000 0.8966600000000000 0.6033400000000000
0.6033400000000001 0.8966600000000000 0.6033400000000000
0.6033400000000001 0.6033400000000000 0.8966600000000000
0.8966600000000000 0.8966600000000000 0.8966600000000000
0.8966600000000000 0.6033400000000000 0.6033400000000000
0.1250000000000000 0.1250000000000000 0.1250000000000000
0.3750000000000000 0.3750000000000000 0.1250000000000000
0.3750000000000000 0.1250000000000000 0.3750000000000000
0.1250000000000000 0.3750000000000000 0.3750000000000000
0.1250000000000000 0.1250000000000000 0.3750000000000000
0.3750000000000000 0.3750000000000000 0.3750000000000000
0.1250000000000000 0.3750000000000000 0.1250000000000000
0.3750000000000000 0.1250000000000000 0.1250000000000000
0.1250000000000000 0.1250000000000000 0.6250000000000000
0.3750000000000000 0.3750000000000000 0.6250000000000000
0.3750000000000000 0.1250000000000000 0.8750000000000000
0.1250000000000000 0.3750000000000000 0.8750000000000000
0.1250000000000000 0.1250000000000000 0.8750000000000000
0.3750000000000000 0.3750000000000000 0.8750000000000000
0.1250000000000000 0.3750000000000000 0.6250000000000000
0.3750000000000000 0.1250000000000000 0.6250000000000000
0.1250000000000000 0.6250000000000000 0.1250000000000000
0.3750000000000000 0.8750000000000000 0.1250000000000000
0.3750000000000000 0.6250000000000000 0.3750000000000000
0.1250000000000000 0.8750000000000000 0.3750000000000000
0.1250000000000000 0.6250000000000000 0.3750000000000000
0.3750000000000000 0.8750000000000000 0.3750000000000000
0.1250000000000000 0.8750000000000000 0.1250000000000000
0.3750000000000000 0.6250000000000000 0.1250000000000000
0.1250000000000000 0.6250000000000000 0.6250000000000000
0.3750000000000001 0.8750000000000000 0.6250000000000000
0.3750000000000001 0.6250000000000000 0.8750000000000000
0.1250000000000000 0.8750000000000000 0.8750000000000000
0.1250000000000000 0.6250000000000000 0.8750000000000000
0.3750000000000001 0.8750000000000000 0.8750000000000000
0.1250000000000000 0.8750000000000000 0.6250000000000000
0.3750000000000001 0.6250000000000000 0.6250000000000000
0.6250000000000000 0.1250000000000000 0.1250000000000000
0.8750000000000000 0.3750000000000000 0.1250000000000000
0.8750000000000000 0.1250000000000000 0.3750000000000000
0.6250000000000000 0.3750000000000000 0.3750000000000000
0.6250000000000000 0.1250000000000000 0.3750000000000000
0.8750000000000000 0.3750000000000000 0.3750000000000000
0.6250000000000000 0.3750000000000000 0.1250000000000000
0.8750000000000000 0.1250000000000000 0.1250000000000000
0.6250000000000000 0.1250000000000000 0.6250000000000000
0.8750000000000000 0.3750000000000000 0.6250000000000000
0.8750000000000000 0.1250000000000000 0.8750000000000000
0.6250000000000000 0.3750000000000000 0.8750000000000000
0.6250000000000000 0.1250000000000000 0.8750000000000000
0.8750000000000000 0.3750000000000000 0.8750000000000000
0.6250000000000000 0.3750000000000000 0.6250000000000000
0.8750000000000000 0.1250000000000000 0.6250000000000000
0.6250000000000000 0.6250000000000000 0.1250000000000000
0.8750000000000000 0.8750000000000000 0.1250000000000000
0.8750000000000000 0.6250000000000000 0.3750000000000000
0.6250000000000000 0.8750000000000000 0.3750000000000000
0.6250000000000000 0.6250000000000000 0.3750000000000000
0.8750000000000000 0.8750000000000000 0.3750000000000000
0.6250000000000000 0.8750000000000000 0.1250000000000000
0.8750000000000000 0.6250000000000000 0.1250000000000000
0.6250000000000000 0.6250000000000000 0.6250000000000000
0.8750000000000000 0.8750000000000000 0.6250000000000000
0.8750000000000000 0.6250000000000000 0.8750000000000000
0.6250000000000000 0.8750000000000000 0.8750000000000000
0.6250000000000000 0.6250000000000000 0.8750000000000000
0.8750000000000000 0.8750000000000000 0.8750000000000000
0.6250000000000000 0.8750000000000000 0.6250000000000000
0.8750000000000000 0.6250000000000000 0.6250000000000000
0.1406200000000000 0.1406200000000000 0.0670050000000000
0.3593800000000000 0.3593800000000000 0.0670050000000000
0.3593800000000000 0.1406200000000000 0.4329950000000001
0.1406200000000000 0.3593800000000000 0.4329950000000001
0.0670050000000000 0.1406200000000000 0.1406200000000000
0.0670050000000000 0.3593800000000000 0.3593800000000000
0.4329950000000001 0.3593800000000000 0.1406200000000000
0.4329950000000001 0.1406200000000000 0.3593800000000000
0.1406200000000000 0.0670050000000000 0.1406200000000000
0.3593800000000000 0.0670050000000000 0.3593800000000000
0.1406200000000000 0.4329950000000001 0.3593800000000000
0.3593800000000000 0.4329950000000001 0.1406200000000000
0.1406200000000000 0.1406200000000000 0.4329950000000001
0.3593800000000000 0.3593800000000000 0.4329950000000001
0.1406200000000000 0.3593800000000000 0.0670050000000000
0.3593800000000000 0.1406200000000000 0.0670050000000000
0.1406200000000000 0.0670050000000000 0.3593800000000000
0.3593800000000000 0.0670050000000000 0.1406200000000000
0.3593800000000000 0.4329950000000001 0.3593800000000000
0.1406200000000000 0.4329950000000001 0.1406200000000000
0.0670050000000000 0.1406200000000000 0.3593800000000000
0.0670050000000000 0.3593800000000000 0.1406200000000000
0.4329950000000001 0.1406200000000000 0.1406200000000000
0.4329950000000001 0.3593800000000000 0.3593800000000000
0.1406200000000000 0.3906200000000000 0.3170049999999999
0.3593800000000000 0.1093800000000000 0.3170049999999999
0.3593800000000000 0.3906200000000000 0.1829950000000000
0.1406200000000000 0.1093800000000000 0.1829950000000000
0.0670050000000000 0.3906200000000000 0.3906200000000000
0.0670050000000000 0.1093800000000000 0.1093800000000000
0.4329950000000001 0.1093800000000000 0.3906200000000000
0.4329950000000001 0.3906200000000000 0.1093800000000000
0.1406200000000000 0.3170049999999999 0.3906200000000000
0.3593800000000000 0.3170049999999999 0.1093800000000000
0.1406200000000000 0.1829950000000000 0.1093800000000000
0.3593800000000000 0.1829950000000000 0.3906200000000000
0.1406200000000000 0.3906200000000000 0.1829950000000000
0.3593800000000000 0.1093800000000000 0.1829950000000000
0.1406200000000000 0.1093800000000000 0.3170049999999999
0.3593800000000000 0.3906200000000000 0.3170049999999999
0.1406200000000000 0.3170049999999999 0.1093800000000000
0.3593800000000000 0.3170049999999999 0.3906200000000000
0.3593800000000000 0.1829950000000000 0.1093800000000000
0.1406200000000000 0.1829950000000000 0.3906200000000000
0.0670050000000000 0.3906200000000000 0.1093800000000000
0.0670050000000000 0.1093800000000000 0.3906200000000000
0.4329950000000001 0.3906200000000000 0.3906200000000000
0.4329950000000001 0.1093800000000000 0.1093800000000000
0.3906200000000000 0.1406200000000000 0.3170049999999999
0.1093800000000000 0.3593800000000000 0.3170049999999999
0.1093800000000000 0.1406200000000000 0.1829950000000000
0.3906200000000000 0.3593800000000000 0.1829950000000000
0.3170049999999999 0.1406200000000000 0.3906200000000000
0.3170049999999999 0.3593800000000000 0.1093800000000000
0.1829950000000000 0.3593800000000000 0.3906200000000000
0.1829950000000000 0.1406200000000000 0.1093800000000000
0.3906200000000000 0.0670050000000000 0.3906200000000000
0.1093800000000000 0.0670050000000000 0.1093800000000000
0.3906200000000000 0.4329950000000001 0.1093800000000000
0.1093800000000000 0.4329950000000001 0.3906200000000000
0.3906200000000000 0.1406200000000000 0.1829950000000000
0.1093800000000000 0.3593800000000000 0.1829950000000000
0.3906200000000000 0.3593800000000000 0.3170049999999999
0.1093800000000000 0.1406200000000000 0.3170049999999999
0.3906200000000000 0.0670050000000000 0.1093800000000000
0.1093800000000000 0.0670050000000000 0.3906200000000000
0.1093800000000000 0.4329950000000001 0.1093800000000000
0.3906200000000000 0.4329950000000001 0.3906200000000000
0.3170049999999999 0.1406200000000000 0.1093800000000000
0.3170049999999999 0.3593800000000000 0.3906200000000000
0.1829950000000000 0.1406200000000000 0.3906200000000000
0.1829950000000000 0.3593800000000000 0.1093800000000000
0.3906200000000000 0.3906200000000000 0.0670050000000000
0.1093800000000000 0.1093800000000000 0.0670050000000000
0.1093800000000000 0.3906200000000000 0.4329950000000001
0.3906200000000000 0.1093800000000000 0.4329950000000001
0.3170049999999999 0.3906200000000000 0.1406200000000000
0.3170049999999999 0.1093800000000000 0.3593800000000000
0.1829950000000000 0.1093800000000000 0.1406200000000000
0.1829950000000000 0.3906200000000000 0.3593800000000000
0.3906200000000000 0.3170049999999999 0.1406200000000000
0.1093800000000000 0.3170049999999999 0.3593800000000000
0.3906200000000000 0.1829950000000000 0.3593800000000000
0.1093800000000000 0.1829950000000000 0.1406200000000000
0.3906200000000000 0.3906200000000000 0.4329950000000001
0.1093800000000000 0.1093800000000000 0.4329950000000001
0.3906200000000000 0.1093800000000000 0.0670050000000000
0.1093800000000000 0.3906200000000000 0.0670050000000000
0.3906200000000000 0.3170049999999999 0.3593800000000000
0.1093800000000000 0.3170049999999999 0.1406200000000000
0.1093800000000000 0.1829950000000000 0.3593800000000000
0.3906200000000000 0.1829950000000000 0.1406200000000000
0.3170049999999999 0.3906200000000000 0.3593800000000000
0.3170049999999999 0.1093800000000000 0.1406200000000000
0.1829950000000000 0.3906200000000000 0.1406200000000000
0.1829950000000000 0.1093800000000000 0.3593800000000000
0.1406200000000000 0.1406200000000000 0.5670050000000000
0.3593800000000000 0.3593800000000000 0.5670050000000000
0.3593800000000000 0.1406200000000000 0.9329950000000000
0.1406200000000000 0.3593800000000000 0.9329950000000000
0.0670050000000000 0.1406200000000000 0.6406200000000000
0.0670050000000000 0.3593800000000000 0.8593800000000000
0.4329950000000001 0.3593800000000000 0.6406200000000000
0.4329950000000001 0.1406200000000000 0.8593800000000000
0.1406200000000000 0.0670050000000000 0.6406200000000000
0.3593800000000000 0.0670050000000000 0.8593800000000000
0.1406200000000000 0.4329950000000001 0.8593800000000000
0.3593800000000000 0.4329950000000001 0.6406200000000000
0.1406200000000000 0.1406200000000000 0.9329950000000000
0.3593800000000000 0.3593800000000000 0.9329950000000000
0.1406200000000000 0.3593800000000000 0.5670050000000000
0.3593800000000000 0.1406200000000000 0.5670050000000000
0.1406200000000000 0.0670050000000000 0.8593800000000000
0.3593800000000000 0.0670050000000000 0.6406200000000000
0.3593800000000000 0.4329950000000001 0.8593800000000000
0.1406200000000000 0.4329950000000001 0.6406200000000000
0.0670050000000000 0.1406200000000000 0.8593800000000000
0.0670050000000000 0.3593800000000000 0.6406200000000000
0.4329950000000001 0.1406200000000000 0.6406200000000000
0.4329950000000001 0.3593800000000000 0.8593800000000000
0.1406200000000000 0.3906200000000001 0.8170050000000000
0.3593800000000000 0.1093800000000000 0.8170050000000000
0.3593800000000000 0.3906200000000001 0.6829950000000000
0.1406200000000000 0.1093800000000000 0.6829950000000000
0.0670050000000000 0.3906200000000001 0.8906200000000000
0.0670050000000000 0.1093800000000000 0.6093800000000000
0.4329950000000001 0.1093800000000000 0.8906200000000000
0.4329950000000001 0.3906200000000001 0.6093800000000000
0.1406200000000000 0.3170050000000000 0.8906200000000000
0.3593800000000000 0.3170050000000000 0.6093800000000000
0.1406200000000000 0.1829950000000000 0.6093800000000000
0.3593800000000000 0.1829950000000000 0.8906200000000000
0.1406200000000000 0.3906200000000001 0.6829950000000000
0.3593800000000000 0.1093800000000000 0.6829950000000000
0.1406200000000000 0.1093800000000000 0.8170050000000000
0.3593800000000000 0.3906200000000001 0.8170050000000000
0.1406200000000000 0.3170050000000000 0.6093800000000000
0.3593800000000000 0.3170050000000000 0.8906200000000000
0.3593800000000000 0.1829950000000000 0.6093800000000000
0.1406200000000000 0.1829950000000000 0.8906200000000000
0.0670050000000000 0.3906200000000001 0.6093800000000000
0.0670050000000000 0.1093800000000000 0.8906200000000000
0.4329950000000001 0.3906200000000001 0.8906200000000000
0.4329950000000001 0.1093800000000000 0.6093800000000000
0.3906200000000001 0.1406200000000000 0.8170050000000000
0.1093800000000000 0.3593800000000000 0.8170050000000000
0.1093800000000000 0.1406200000000000 0.6829950000000000
0.3906200000000001 0.3593800000000000 0.6829950000000000
0.3170050000000000 0.1406200000000000 0.8906200000000000
0.3170050000000000 0.3593800000000000 0.6093800000000000
0.1829950000000000 0.3593800000000000 0.8906200000000000
0.1829950000000000 0.1406200000000000 0.6093800000000000
0.3906200000000001 0.0670050000000000 0.8906200000000000
0.1093800000000000 0.0670050000000000 0.6093800000000000
0.3906200000000001 0.4329950000000001 0.6093800000000000
0.1093800000000000 0.4329950000000001 0.8906200000000000
0.3906200000000001 0.1406200000000000 0.6829950000000000
0.1093800000000000 0.3593800000000000 0.6829950000000000
0.3906200000000001 0.3593800000000000 0.8170050000000000
0.1093800000000000 0.1406200000000000 0.8170050000000000
0.3906200000000001 0.0670050000000000 0.6093800000000000
0.1093800000000000 0.0670050000000000 0.8906200000000000
0.1093800000000000 0.4329950000000001 0.6093800000000000
0.3906200000000001 0.4329950000000001 0.8906200000000000
0.3170050000000000 0.1406200000000000 0.6093800000000000
0.3170050000000000 0.3593800000000000 0.8906200000000000
0.1829950000000000 0.1406200000000000 0.8906200000000000
0.1829950000000000 0.3593800000000000 0.6093800000000000
0.3906200000000001 0.3906200000000001 0.5670050000000000
0.1093800000000000 0.1093800000000000 0.5670050000000000
0.1093800000000000 0.3906200000000001 0.9329950000000000
0.3906200000000001 0.1093800000000000 0.9329950000000000
0.3170050000000000 0.3906200000000001 0.6406200000000000
0.3170050000000000 0.1093800000000000 0.8593800000000000
0.1829950000000000 0.1093800000000000 0.6406200000000000
0.1829950000000000 0.3906200000000001 0.8593800000000000
0.3906200000000001 0.3170050000000000 0.6406200000000000
0.1093800000000000 0.3170050000000000 0.8593800000000000
0.3906200000000001 0.1829950000000000 0.8593800000000000
0.1093800000000000 0.1829950000000000 0.6406200000000000
0.3906200000000001 0.3906200000000001 0.9329950000000000
0.1093800000000000 0.1093800000000000 0.9329950000000000
0.3906200000000001 0.1093800000000000 0.5670050000000000
0.1093800000000000 0.3906200000000001 0.5670050000000000
0.3906200000000001 0.3170050000000000 0.8593800000000000
0.1093800000000000 0.3170050000000000 0.6406200000000000
0.1093800000000000 0.1829950000000000 0.8593800000000000
0.3906200000000001 0.1829950000000000 0.6406200000000000
0.3170050000000000 0.3906200000000001 0.8593800000000000
0.3170050000000000 0.1093800000000000 0.6406200000000000
0.1829950000000000 0.3906200000000001 0.6406200000000000
0.1829950000000000 0.1093800000000000 0.8593800000000000
0.1406200000000000 0.6406200000000000 0.0670050000000000
0.3593800000000000 0.8593800000000000 0.0670050000000000
0.3593800000000000 0.6406200000000000 0.4329950000000001
0.1406200000000000 0.8593800000000000 0.4329950000000001
0.0670050000000000 0.6406200000000000 0.1406200000000000
0.0670050000000000 0.8593800000000000 0.3593800000000000
0.4329950000000001 0.8593800000000000 0.1406200000000000
0.4329950000000001 0.6406200000000000 0.3593800000000000
0.1406200000000000 0.5670050000000000 0.1406200000000000
0.3593800000000000 0.5670050000000000 0.3593800000000000
0.1406200000000000 0.9329950000000000 0.3593800000000000
0.3593800000000000 0.9329950000000000 0.1406200000000000
0.1406200000000000 0.6406200000000000 0.4329950000000001
0.3593800000000000 0.8593800000000000 0.4329950000000001
0.1406200000000000 0.8593800000000000 0.0670050000000000
0.3593800000000000 0.6406200000000000 0.0670050000000000
0.1406200000000000 0.5670050000000000 0.3593800000000000
0.3593800000000000 0.5670050000000000 0.1406200000000000
0.3593800000000000 0.9329950000000000 0.3593800000000000
0.1406200000000000 0.9329950000000000 0.1406200000000000
0.0670050000000000 0.6406200000000000 0.3593800000000000
0.0670050000000000 0.8593800000000000 0.1406200000000000
0.4329950000000001 0.6406200000000000 0.1406200000000000
0.4329950000000001 0.8593800000000000 0.3593800000000000
0.1406200000000000 0.8906200000000000 0.3170049999999999
0.3593800000000000 0.6093800000000000 0.3170049999999999
0.3593800000000000 0.8906200000000000 0.1829950000000000
0.1406200000000000 0.6093800000000000 0.1829950000000000
0.0670050000000000 0.8906200000000000 0.3906200000000000
0.0670050000000000 0.6093800000000000 0.1093800000000000
0.4329950000000001 0.6093800000000000 0.3906200000000000
0.4329950000000001 0.8906200000000000 0.1093800000000000
0.1406200000000000 0.8170050000000000 0.3906200000000000
0.3593800000000000 0.8170050000000000 0.1093800000000000
0.1406200000000000 0.6829950000000000 0.1093800000000000
0.3593800000000000 0.6829950000000000 0.3906200000000000
0.1406200000000000 0.8906200000000000 0.1829950000000000
0.3593800000000000 0.6093800000000000 0.1829950000000000
0.1406200000000000 0.6093800000000000 0.3170049999999999
0.3593800000000000 0.8906200000000000 0.3170049999999999
0.1406200000000000 0.8170050000000000 0.1093800000000000
0.3593800000000000 0.8170050000000000 0.3906200000000000
0.3593800000000000 0.6829950000000000 0.1093800000000000
0.1406200000000000 0.6829950000000000 0.3906200000000000
0.0670050000000000 0.8906200000000000 0.1093800000000000
0.0670050000000000 0.6093800000000000 0.3906200000000000
0.4329950000000001 0.8906200000000000 0.3906200000000000
0.4329950000000001 0.6093800000000000 0.1093800000000000
0.3906200000000001 0.6406200000000000 0.3170049999999999
0.1093800000000000 0.8593800000000000 0.3170049999999999
0.1093800000000000 0.6406200000000000 0.1829950000000000
0.3906200000000001 0.8593800000000000 0.1829950000000000
0.3170050000000000 0.6406200000000000 0.3906200000000000
0.3170050000000000 0.8593800000000000 0.1093800000000000
0.1829950000000000 0.8593800000000000 0.3906200000000000
0.1829950000000000 0.6406200000000000 0.1093800000000000
0.3906200000000001 0.5670050000000000 0.3906200000000000
0.1093800000000000 0.5670050000000000 0.1093800000000000
0.3906200000000001 0.9329950000000000 0.1093800000000000
0.1093800000000000 0.9329950000000000 0.3906200000000000
0.3906200000000001 0.6406200000000000 0.1829950000000000
0.1093800000000000 0.8593800000000000 0.1829950000000000
0.3906200000000001 0.8593800000000000 0.3170049999999999
0.1093800000000000 0.6406200000000000 0.3170049999999999
0.3906200000000001 0.5670050000000000 0.1093800000000000
0.1093800000000000 0.5670050000000000 0.3906200000000000
0.1093800000000000 0.9329950000000000 0.1093800000000000
0.3906200000000001 0.9329950000000000 0.3906200000000000
0.3170050000000000 0.6406200000000000 0.1093800000000000
0.3170050000000000 0.8593800000000000 0.3906200000000000
0.1829950000000000 0.6406200000000000 0.3906200000000000
0.1829950000000000 0.8593800000000000 0.1093800000000000
0.3906200000000001 0.8906200000000000 0.0670050000000000
0.1093800000000000 0.6093800000000000 0.0670050000000000
0.1093800000000000 0.8906200000000000 0.4329950000000001
0.3906200000000001 0.6093800000000000 0.4329950000000001
0.3170050000000000 0.8906200000000000 0.1406200000000000
0.3170050000000000 0.6093800000000000 0.3593800000000000
0.1829950000000000 0.6093800000000000 0.1406200000000000
0.1829950000000000 0.8906200000000000 0.3593800000000000
0.3906200000000001 0.8170050000000000 0.1406200000000000
0.1093800000000000 0.8170050000000000 0.3593800000000000
0.3906200000000001 0.6829950000000000 0.3593800000000000
0.1093800000000000 0.6829950000000000 0.1406200000000000
0.3906200000000001 0.8906200000000000 0.4329950000000001
0.1093800000000000 0.6093800000000000 0.4329950000000001
0.3906200000000001 0.6093800000000000 0.0670050000000000
0.1093800000000000 0.8906200000000000 0.0670050000000000
0.3906200000000001 0.8170050000000000 0.3593800000000000
0.1093800000000000 0.8170050000000000 0.1406200000000000
0.1093800000000000 0.6829950000000000 0.3593800000000000
0.3906200000000001 0.6829950000000000 0.1406200000000000
0.3170050000000000 0.8906200000000000 0.3593800000000000
0.3170050000000000 0.6093800000000000 0.1406200000000000
0.1829950000000000 0.8906200000000000 0.1406200000000000
0.1829950000000000 0.6093800000000000 0.3593800000000000
0.1406200000000000 0.6406200000000000 0.5670050000000000
0.3593800000000000 0.8593800000000000 0.5670050000000000
0.3593800000000000 0.6406199999999999 0.9329950000000000
0.1406200000000000 0.8593799999999999 0.9329950000000000
0.0670050000000000 0.6406200000000000 0.6406200000000000
0.0670050000000000 0.8593800000000000 0.8593800000000000
0.4329950000000001 0.8593800000000000 0.6406200000000000
0.4329950000000001 0.6406200000000000 0.8593800000000000
0.1406200000000000 0.5670050000000000 0.6406200000000000
0.3593800000000000 0.5670050000000000 0.8593800000000000
0.1406200000000000 0.9329950000000000 0.8593800000000000
0.3593800000000000 0.9329950000000000 0.6406200000000000
0.1406200000000000 0.6406199999999999 0.9329950000000000
0.3593800000000000 0.8593799999999999 0.9329950000000000
0.1406200000000000 0.8593800000000000 0.5670050000000000
0.3593800000000000 0.6406200000000000 0.5670050000000000
0.1406200000000000 0.5670050000000000 0.8593800000000000
0.3593800000000000 0.5670050000000000 0.6406200000000000
0.3593800000000000 0.9329950000000000 0.8593800000000000
0.1406200000000000 0.9329950000000000 0.6406200000000000
0.0670050000000000 0.6406200000000000 0.8593800000000000
0.0670050000000000 0.8593800000000000 0.6406200000000000
0.4329950000000001 0.6406200000000000 0.6406200000000000
0.4329950000000001 0.8593800000000000 0.8593800000000000
0.1406200000000000 0.8906200000000000 0.8170050000000000
0.3593800000000000 0.6093800000000001 0.8170050000000000
0.3593800000000000 0.8906200000000000 0.6829950000000000
0.1406200000000000 0.6093800000000001 0.6829950000000000
0.0670050000000000 0.8906200000000000 0.8906200000000000
0.0670050000000000 0.6093800000000001 0.6093800000000000
0.4329950000000001 0.6093800000000001 0.8906200000000000
0.4329950000000001 0.8906200000000000 0.6093800000000000
0.1406200000000000 0.8170050000000000 0.8906200000000000
0.3593800000000000 0.8170050000000000 0.6093800000000000
0.1406200000000000 0.6829950000000000 0.6093800000000000
0.3593800000000000 0.6829950000000000 0.8906200000000000
0.1406200000000000 0.8906200000000000 0.6829950000000000
0.3593800000000000 0.6093800000000001 0.6829950000000000
0.1406200000000000 0.6093800000000001 0.8170050000000000
0.3593800000000000 0.8906200000000000 0.8170050000000000
0.1406200000000000 0.8170050000000000 0.6093800000000000
0.3593800000000000 0.8170050000000000 0.8906200000000000
0.3593800000000000 0.6829950000000000 0.6093800000000000
0.1406200000000000 0.6829950000000000 0.8906200000000000
0.0670050000000000 0.8906200000000000 0.6093800000000000
0.0670050000000000 0.6093800000000001 0.8906200000000000
0.4329950000000001 0.8906200000000000 0.8906200000000000
0.4329950000000001 0.6093800000000001 0.6093800000000000
0.3906200000000001 0.6406200000000000 0.8170050000000000
0.1093800000000000 0.8593800000000000 0.8170050000000000
0.1093800000000000 0.6406200000000000 0.6829950000000000
0.3906200000000001 0.8593800000000000 0.6829950000000000
0.3170050000000000 0.6406200000000000 0.8906200000000000
0.3170050000000000 0.8593800000000000 0.6093800000000000
0.1829950000000000 0.8593800000000000 0.8906200000000000
0.1829950000000000 0.6406200000000000 0.6093800000000000
0.3906200000000001 0.5670050000000000 0.8906200000000000
0.1093800000000000 0.5670050000000000 0.6093800000000000
0.3906200000000001 0.9329950000000000 0.6093800000000000
0.1093800000000000 0.9329950000000000 0.8906200000000000
0.3906200000000001 0.6406200000000000 0.6829950000000000
0.1093800000000000 0.8593800000000000 0.6829950000000000
0.3906200000000001 0.8593800000000000 0.8170050000000000
0.1093800000000000 0.6406200000000000 0.8170050000000000
0.3906200000000001 0.5670050000000000 0.6093800000000000
0.1093800000000000 0.5670050000000000 0.8906200000000000
0.1093800000000000 0.9329950000000000 0.6093800000000000
0.3906200000000001 0.9329950000000000 0.8906200000000000
0.3170050000000000 0.6406200000000000 0.6093800000000000
0.3170050000000000 0.8593800000000000 0.8906200000000000
0.1829950000000000 0.6406200000000000 0.8906200000000000
0.1829950000000000 0.8593800000000000 0.6093800000000000
0.3906200000000001 0.8906200000000000 0.5670050000000000
0.1093800000000000 0.6093800000000001 0.5670050000000000
0.1093800000000000 0.8906199999999999 0.9329950000000000
0.3906200000000001 0.6093800000000000 0.9329950000000000
0.3170050000000000 0.8906200000000000 0.6406200000000000
0.3170050000000000 0.6093800000000001 0.8593800000000000
0.1829950000000000 0.6093800000000001 0.6406200000000000
0.1829950000000000 0.8906200000000000 0.8593800000000000
0.3906200000000001 0.8170050000000000 0.6406200000000000
0.1093800000000000 0.8170050000000000 0.8593800000000000
0.3906200000000001 0.6829950000000000 0.8593800000000000
0.1093800000000000 0.6829950000000000 0.6406200000000000
0.3906200000000001 0.8906199999999999 0.9329950000000000
0.1093800000000000 0.6093800000000000 0.9329950000000000
0.3906200000000001 0.6093800000000001 0.5670050000000000
0.1093800000000000 0.8906200000000000 0.5670050000000000
0.3906200000000001 0.8170050000000000 0.8593800000000000
0.1093800000000000 0.8170050000000000 0.6406200000000000
0.1093800000000000 0.6829950000000000 0.8593800000000000
0.3906200000000001 0.6829950000000000 0.6406200000000000
0.3170050000000000 0.8906200000000000 0.8593800000000000
0.3170050000000000 0.6093800000000001 0.6406200000000000
0.1829950000000000 0.8906200000000000 0.6406200000000000
0.1829950000000000 0.6093800000000001 0.8593800000000000
0.6406200000000000 0.1406200000000000 0.0670050000000000
0.8593800000000000 0.3593800000000000 0.0670050000000000
0.8593800000000000 0.1406200000000000 0.4329950000000001
0.6406200000000000 0.3593800000000000 0.4329950000000001
0.5670050000000000 0.1406200000000000 0.1406200000000000
0.5670050000000000 0.3593800000000000 0.3593800000000000
0.9329950000000000 0.3593800000000000 0.1406200000000000
0.9329950000000000 0.1406200000000000 0.3593800000000000
0.6406200000000000 0.0670050000000000 0.1406200000000000
0.8593800000000000 0.0670050000000000 0.3593800000000000
0.6406200000000000 0.4329950000000001 0.3593800000000000
0.8593800000000000 0.4329950000000001 0.1406200000000000
0.6406200000000000 0.1406200000000000 0.4329950000000001
0.8593800000000000 0.3593800000000000 0.4329950000000001
0.6406200000000000 0.3593800000000000 0.0670050000000000
0.8593800000000000 0.1406200000000000 0.0670050000000000
0.6406200000000000 0.0670050000000000 0.3593800000000000
0.8593800000000000 0.0670050000000000 0.1406200000000000
0.8593800000000000 0.4329950000000001 0.3593800000000000
0.6406200000000000 0.4329950000000001 0.1406200000000000
0.5670050000000000 0.1406200000000000 0.3593800000000000
0.5670050000000000 0.3593800000000000 0.1406200000000000
0.9329950000000000 0.1406200000000000 0.1406200000000000
0.9329950000000000 0.3593800000000000 0.3593800000000000
0.6406200000000000 0.3906200000000000 0.3170049999999999
0.8593800000000000 0.1093800000000000 0.3170049999999999
0.8593800000000000 0.3906200000000000 0.1829950000000000
0.6406200000000000 0.1093800000000000 0.1829950000000000
0.5670050000000000 0.3906200000000000 0.3906200000000000
0.5670050000000000 0.1093800000000000 0.1093800000000000
0.9329950000000000 0.1093800000000000 0.3906200000000000
0.9329950000000000 0.3906200000000000 0.1093800000000000
0.6406200000000000 0.3170049999999999 0.3906200000000000
0.8593800000000000 0.3170049999999999 0.1093800000000000
0.6406200000000000 0.1829950000000000 0.1093800000000000
0.8593800000000000 0.1829950000000000 0.3906200000000000
0.6406200000000000 0.3906200000000000 0.1829950000000000
0.8593800000000000 0.1093800000000000 0.1829950000000000
0.6406200000000000 0.1093800000000000 0.3170049999999999
0.8593800000000000 0.3906200000000000 0.3170049999999999
0.6406200000000000 0.3170049999999999 0.1093800000000000
0.8593800000000000 0.3170049999999999 0.3906200000000000
0.8593800000000000 0.1829950000000000 0.1093800000000000
0.6406200000000000 0.1829950000000000 0.3906200000000000
0.5670050000000000 0.3906200000000000 0.1093800000000000
0.5670050000000000 0.1093800000000000 0.3906200000000000
0.9329950000000000 0.3906200000000000 0.3906200000000000
0.9329950000000000 0.1093800000000000 0.1093800000000000
0.8906200000000000 0.1406200000000000 0.3170049999999999
0.6093800000000000 0.3593800000000000 0.3170049999999999
0.6093800000000000 0.1406200000000000 0.1829950000000000
0.8906200000000000 0.3593800000000000 0.1829950000000000
0.8170050000000000 0.1406200000000000 0.3906200000000000
0.8170050000000000 0.3593800000000000 0.1093800000000000
0.6829950000000000 0.3593800000000000 0.3906200000000000
0.6829950000000000 0.1406200000000000 0.1093800000000000
0.8906200000000000 0.0670050000000000 0.3906200000000000
0.6093800000000000 0.0670050000000000 0.1093800000000000
0.8906200000000000 0.4329950000000001 0.1093800000000000
0.6093800000000000 0.4329950000000001 0.3906200000000000
0.8906200000000000 0.1406200000000000 0.1829950000000000
0.6093800000000000 0.3593800000000000 0.1829950000000000
0.8906200000000000 0.3593800000000000 0.3170049999999999
0.6093800000000000 0.1406200000000000 0.3170049999999999
0.8906200000000000 0.0670050000000000 0.1093800000000000
0.6093800000000000 0.0670050000000000 0.3906200000000000
0.6093800000000000 0.4329950000000001 0.1093800000000000
0.8906200000000000 0.4329950000000001 0.3906200000000000
0.8170050000000000 0.1406200000000000 0.1093800000000000
0.8170050000000000 0.3593800000000000 0.3906200000000000
0.6829950000000000 0.1406200000000000 0.3906200000000000
0.6829950000000000 0.3593800000000000 0.1093800000000000
0.8906200000000000 0.3906200000000000 0.0670050000000000
0.6093800000000000 0.1093800000000000 0.0670050000000000
0.6093800000000000 0.3906200000000000 0.4329950000000001
0.8906200000000000 0.1093800000000000 0.4329950000000001
0.8170050000000000 0.3906200000000000 0.1406200000000000
0.8170050000000000 0.1093800000000000 0.3593800000000000
0.6829950000000000 0.1093800000000000 0.1406200000000000
0.6829950000000000 0.3906200000000000 0.3593800000000000
0.8906200000000000 0.3170049999999999 0.1406200000000000
0.6093800000000000 0.3170049999999999 0.3593800000000000
0.8906200000000000 0.1829950000000000 0.3593800000000000
0.6093800000000000 0.1829950000000000 0.1406200000000000
0.8906200000000000 0.3906200000000000 0.4329950000000001
0.6093800000000000 0.1093800000000000 0.4329950000000001
0.8906200000000000 0.1093800000000000 0.0670050000000000
0.6093800000000000 0.3906200000000000 0.0670050000000000
0.8906200000000000 0.3170049999999999 0.3593800000000000
0.6093800000000000 0.3170049999999999 0.1406200000000000
0.6093800000000000 0.1829950000000000 0.3593800000000000
0.8906200000000000 0.1829950000000000 0.1406200000000000
0.8170050000000000 0.3906200000000000 0.3593800000000000
0.8170050000000000 0.1093800000000000 0.1406200000000000
0.6829950000000000 0.3906200000000000 0.1406200000000000
0.6829950000000000 0.1093800000000000 0.3593800000000000
0.6406200000000000 0.1406200000000000 0.5670050000000000
0.8593800000000000 0.3593800000000000 0.5670050000000000
0.8593799999999999 0.1406200000000000 0.9329950000000000
0.6406199999999999 0.3593800000000000 0.9329950000000000
0.5670050000000000 0.1406200000000000 0.6406200000000000
0.5670050000000000 0.3593800000000000 0.8593800000000000
0.9329950000000000 0.3593800000000000 0.6406200000000000
0.9329950000000000 0.1406200000000000 0.8593800000000000
0.6406200000000000 0.0670050000000000 0.6406200000000000
0.8593800000000000 0.0670050000000000 0.8593800000000000
0.6406200000000000 0.4329950000000001 0.8593800000000000
0.8593800000000000 0.4329950000000001 0.6406200000000000
0.6406199999999999 0.1406200000000000 0.9329950000000000
0.8593799999999999 0.3593800000000000 0.9329950000000000
0.6406200000000000 0.3593800000000000 0.5670050000000000
0.8593800000000000 0.1406200000000000 0.5670050000000000
0.6406200000000000 0.0670050000000000 0.8593800000000000
0.8593800000000000 0.0670050000000000 0.6406200000000000
0.8593800000000000 0.4329950000000001 0.8593800000000000
0.6406200000000000 0.4329950000000001 0.6406200000000000
0.5670050000000000 0.1406200000000000 0.8593800000000000
0.5670050000000000 0.3593800000000000 0.6406200000000000
0.9329950000000000 0.1406200000000000 0.6406200000000000
0.9329950000000000 0.3593800000000000 0.8593800000000000
0.6406200000000000 0.3906200000000001 0.8170050000000000
0.8593800000000000 0.1093800000000000 0.8170050000000000
0.8593800000000000 0.3906200000000001 0.6829950000000000
0.6406200000000000 0.1093800000000000 0.6829950000000000
0.5670050000000000 0.3906200000000001 0.8906200000000000
0.5670050000000000 0.1093800000000000 0.6093800000000000
0.9329950000000000 0.1093800000000000 0.8906200000000000
0.9329950000000000 0.3906200000000001 0.6093800000000000
0.6406200000000000 0.3170050000000000 0.8906200000000000
0.8593800000000000 0.3170050000000000 0.6093800000000000
0.6406200000000000 0.1829950000000000 0.6093800000000000
0.8593800000000000 0.1829950000000000 0.8906200000000000
0.6406200000000000 0.3906200000000001 0.6829950000000000
0.8593800000000000 0.1093800000000000 0.6829950000000000
0.6406200000000000 0.1093800000000000 0.8170050000000000
0.8593800000000000 0.3906200000000001 0.8170050000000000
0.6406200000000000 0.3170050000000000 0.6093800000000000
0.8593800000000000 0.3170050000000000 0.8906200000000000
0.8593800000000000 0.1829950000000000 0.6093800000000000
0.6406200000000000 0.1829950000000000 0.8906200000000000
0.5670050000000000 0.3906200000000001 0.6093800000000000
0.5670050000000000 0.1093800000000000 0.8906200000000000
0.9329950000000000 0.3906200000000001 0.8906200000000000
0.9329950000000000 0.1093800000000000 0.6093800000000000
0.8906200000000000 0.1406200000000000 0.8170050000000000
0.6093800000000001 0.3593800000000000 0.8170050000000000
0.6093800000000001 0.1406200000000000 0.6829950000000000
0.8906200000000000 0.3593800000000000 0.6829950000000000
0.8170050000000000 0.1406200000000000 0.8906200000000000
0.8170050000000000 0.3593800000000000 0.6093800000000000
0.6829950000000000 0.3593800000000000 0.8906200000000000
0.6829950000000000 0.1406200000000000 0.6093800000000000
0.8906200000000000 0.0670050000000000 0.8906200000000000
0.6093800000000001 0.0670050000000000 0.6093800000000000
0.8906200000000000 0.4329950000000001 0.6093800000000000
0.6093800000000001 0.4329950000000001 0.8906200000000000
0.8906200000000000 0.1406200000000000 0.6829950000000000
0.6093800000000001 0.3593800000000000 0.6829950000000000
0.8906200000000000 0.3593800000000000 0.8170050000000000
0.6093800000000001 0.1406200000000000 0.8170050000000000
0.8906200000000000 0.0670050000000000 0.6093800000000000
0.6093800000000001 0.0670050000000000 0.8906200000000000
0.6093800000000001 0.4329950000000001 0.6093800000000000
0.8906200000000000 0.4329950000000001 0.8906200000000000
0.8170050000000000 0.1406200000000000 0.6093800000000000
0.8170050000000000 0.3593800000000000 0.8906200000000000
0.6829950000000000 0.1406200000000000 0.8906200000000000
0.6829950000000000 0.3593800000000000 0.6093800000000000
0.8906200000000000 0.3906200000000001 0.5670050000000000
0.6093800000000001 0.1093800000000000 0.5670050000000000
0.6093800000000000 0.3906200000000001 0.9329950000000000
0.8906199999999999 0.1093800000000000 0.9329950000000000
0.8170050000000000 0.3906200000000001 0.6406200000000000
0.8170050000000000 0.1093800000000000 0.8593800000000000
0.6829950000000000 0.1093800000000000 0.6406200000000000
0.6829950000000000 0.3906200000000001 0.8593800000000000
0.8906200000000000 0.3170050000000000 0.6406200000000000
0.6093800000000001 0.3170050000000000 0.8593800000000000
0.8906200000000000 0.1829950000000000 0.8593800000000000
0.6093800000000001 0.1829950000000000 0.6406200000000000
0.8906199999999999 0.3906200000000001 0.9329950000000000
0.6093800000000000 0.1093800000000000 0.9329950000000000
0.8906200000000000 0.1093800000000000 0.5670050000000000
0.6093800000000001 0.3906200000000001 0.5670050000000000
0.8906200000000000 0.3170050000000000 0.8593800000000000
0.6093800000000001 0.3170050000000000 0.6406200000000000
0.6093800000000001 0.1829950000000000 0.8593800000000000
0.8906200000000000 0.1829950000000000 0.6406200000000000
0.8170050000000000 0.3906200000000001 0.8593800000000000
0.8170050000000000 0.1093800000000000 0.6406200000000000
0.6829950000000000 0.3906200000000001 0.6406200000000000
0.6829950000000000 0.1093800000000000 0.8593800000000000
0.6406200000000000 0.6406200000000000 0.0670050000000000
0.8593800000000000 0.8593800000000000 0.0670050000000000
0.8593800000000000 0.6406200000000000 0.4329950000000001
0.6406200000000000 0.8593800000000000 0.4329950000000001
0.5670050000000000 0.6406200000000000 0.1406200000000000
0.5670050000000000 0.8593800000000000 0.3593800000000000
0.9329950000000000 0.8593800000000000 0.1406200000000000
0.9329950000000000 0.6406200000000000 0.3593800000000000
0.6406200000000000 0.5670050000000000 0.1406200000000000
0.8593800000000000 0.5670050000000000 0.3593800000000000
0.6406199999999999 0.9329950000000000 0.3593800000000000
0.8593799999999999 0.9329950000000000 0.1406200000000000
0.6406200000000000 0.6406200000000000 0.4329950000000001
0.8593800000000000 0.8593800000000000 0.4329950000000001
0.6406200000000000 0.8593800000000000 0.0670050000000000
0.8593800000000000 0.6406200000000000 0.0670050000000000
0.6406200000000000 0.5670050000000000 0.3593800000000000
0.8593800000000000 0.5670050000000000 0.1406200000000000
0.8593799999999999 0.9329950000000000 0.3593800000000000
0.6406199999999999 0.9329950000000000 0.1406200000000000
0.5670050000000000 0.6406200000000000 0.3593800000000000
0.5670050000000000 0.8593800000000000 0.1406200000000000
0.9329950000000000 0.6406200000000000 0.1406200000000000
0.9329950000000000 0.8593800000000000 0.3593800000000000
0.6406200000000000 0.8906200000000000 0.3170049999999999
0.8593800000000000 0.6093800000000000 0.3170049999999999
0.8593800000000000 0.8906200000000000 0.1829950000000000
0.6406200000000000 0.6093800000000000 0.1829950000000000
0.5670050000000000 0.8906200000000000 0.3906200000000000
0.5670050000000000 0.6093800000000000 0.1093800000000000
0.9329950000000000 0.6093800000000000 0.3906200000000000
0.9329950000000000 0.8906200000000000 0.1093800000000000
0.6406200000000000 0.8170050000000000 0.3906200000000000
0.8593800000000000 0.8170050000000000 0.1093800000000000
0.6406200000000000 0.6829950000000000 0.1093800000000000
0.8593800000000000 0.6829950000000000 0.3906200000000000
0.6406200000000000 0.8906200000000000 0.1829950000000000
0.8593800000000000 0.6093800000000000 0.1829950000000000
0.6406200000000000 0.6093800000000000 0.3170049999999999
0.8593800000000000 0.8906200000000000 0.3170049999999999
0.6406200000000000 0.8170050000000000 0.1093800000000000
0.8593800000000000 0.8170050000000000 0.3906200000000000
0.8593800000000000 0.6829950000000000 0.1093800000000000
0.6406200000000000 0.6829950000000000 0.3906200000000000
0.5670050000000000 0.8906200000000000 0.1093800000000000
0.5670050000000000 0.6093800000000000 0.3906200000000000
0.9329950000000000 0.8906200000000000 0.3906200000000000
0.9329950000000000 0.6093800000000000 0.1093800000000000
0.8906200000000000 0.6406200000000000 0.3170049999999999
0.6093800000000001 0.8593800000000000 0.3170049999999999
0.6093800000000001 0.6406200000000000 0.1829950000000000
0.8906200000000000 0.8593800000000000 0.1829950000000000
0.8170050000000000 0.6406200000000000 0.3906200000000000
0.8170050000000000 0.8593800000000000 0.1093800000000000
0.6829950000000000 0.8593800000000000 0.3906200000000000
0.6829950000000000 0.6406200000000000 0.1093800000000000
0.8906200000000000 0.5670050000000000 0.3906200000000000
0.6093800000000001 0.5670050000000000 0.1093800000000000
0.8906199999999999 0.9329950000000000 0.1093800000000000
0.6093800000000000 0.9329950000000000 0.3906200000000000
0.8906200000000000 0.6406200000000000 0.1829950000000000
0.6093800000000001 0.8593800000000000 0.1829950000000000
0.8906200000000000 0.8593800000000000 0.3170049999999999
0.6093800000000001 0.6406200000000000 0.3170049999999999
0.8906200000000000 0.5670050000000000 0.1093800000000000
0.6093800000000001 0.5670050000000000 0.3906200000000000
0.6093800000000000 0.9329950000000000 0.1093800000000000
0.8906199999999999 0.9329950000000000 0.3906200000000000
0.8170050000000000 0.6406200000000000 0.1093800000000000
0.8170050000000000 0.8593800000000000 0.3906200000000000
0.6829950000000000 0.6406200000000000 0.3906200000000000
0.6829950000000000 0.8593800000000000 0.1093800000000000
0.8906200000000000 0.8906200000000000 0.0670050000000000
0.6093800000000001 0.6093800000000000 0.0670050000000000
0.6093800000000001 0.8906200000000000 0.4329950000000001
0.8906200000000000 0.6093800000000000 0.4329950000000001
0.8170050000000000 0.8906200000000000 0.1406200000000000
0.8170050000000000 0.6093800000000000 0.3593800000000000
0.6829950000000000 0.6093800000000000 0.1406200000000000
0.6829950000000000 0.8906200000000000 0.3593800000000000
0.8906200000000000 0.8170050000000000 0.1406200000000000
0.6093800000000001 0.8170050000000000 0.3593800000000000
0.8906200000000000 0.6829950000000000 0.3593800000000000
0.6093800000000001 0.6829950000000000 0.1406200000000000
0.8906200000000000 0.8906200000000000 0.4329950000000001
0.6093800000000001 0.6093800000000000 0.4329950000000001
0.8906200000000000 0.6093800000000000 0.0670050000000000
0.6093800000000001 0.8906200000000000 0.0670050000000000
0.8906200000000000 0.8170050000000000 0.3593800000000000
0.6093800000000001 0.8170050000000000 0.1406200000000000
0.6093800000000001 0.6829950000000000 0.3593800000000000
0.8906200000000000 0.6829950000000000 0.1406200000000000
0.8170050000000000 0.8906200000000000 0.3593800000000000
0.8170050000000000 0.6093800000000000 0.1406200000000000
0.6829950000000000 0.8906200000000000 0.1406200000000000
0.6829950000000000 0.6093800000000000 0.3593800000000000
0.6406200000000000 0.6406200000000000 0.5670050000000000
0.8593800000000000 0.8593800000000000 0.5670050000000000
0.8593799999999999 0.6406199999999999 0.9329950000000000
0.6406199999999999 0.8593799999999999 0.9329950000000000
0.5670050000000001 0.6406200000000000 0.6406200000000000
0.5670050000000001 0.8593800000000000 0.8593800000000000
0.9329950000000000 0.8593800000000000 0.6406200000000000
0.9329950000000000 0.6406200000000000 0.8593800000000000
0.6406200000000000 0.5670050000000000 0.6406200000000000
0.8593800000000000 0.5670050000000000 0.8593800000000000
0.6406199999999999 0.9329950000000000 0.8593800000000000
0.8593799999999999 0.9329950000000000 0.6406200000000000
0.6406199999999999 0.6406199999999999 0.9329950000000000
0.8593799999999999 0.8593799999999999 0.9329950000000000
0.6406200000000000 0.8593800000000000 0.5670050000000000
0.8593800000000000 0.6406200000000000 0.5670050000000000
0.6406200000000000 0.5670050000000000 0.8593800000000000
0.8593800000000000 0.5670050000000000 0.6406200000000000
0.8593799999999999 0.9329950000000000 0.8593800000000000
0.6406199999999999 0.9329950000000000 0.6406200000000000
0.5670050000000001 0.6406200000000000 0.8593800000000000
0.5670050000000001 0.8593800000000000 0.6406200000000000
0.9329950000000000 0.6406200000000000 0.6406200000000000
0.9329950000000000 0.8593800000000000 0.8593800000000000
0.6406200000000000 0.8906200000000000 0.8170050000000000
0.8593800000000000 0.6093800000000001 0.8170050000000000
0.8593800000000000 0.8906200000000000 0.6829950000000000
0.6406200000000000 0.6093800000000001 0.6829950000000000
0.5670050000000001 0.8906200000000000 0.8906200000000000
0.5670050000000001 0.6093800000000001 0.6093800000000000
0.9329950000000000 0.6093800000000001 0.8906200000000000
0.9329950000000000 0.8906200000000000 0.6093800000000000
0.6406200000000000 0.8170050000000000 0.8906200000000000
0.8593800000000000 0.8170050000000000 0.6093800000000000
0.6406200000000000 0.6829950000000000 0.6093800000000000
0.8593800000000000 0.6829950000000000 0.8906200000000000
0.6406200000000000 0.8906200000000000 0.6829950000000000
0.8593800000000000 0.6093800000000001 0.6829950000000000
0.6406200000000000 0.6093800000000001 0.8170050000000000
0.8593800000000000 0.8906200000000000 0.8170050000000000
0.6406200000000000 0.8170050000000000 0.6093800000000000
0.8593800000000000 0.8170050000000000 0.8906200000000000
0.8593800000000000 0.6829950000000000 0.6093800000000000
0.6406200000000000 0.6829950000000000 0.8906200000000000
0.5670050000000001 0.8906200000000000 0.6093800000000000
0.5670050000000001 0.6093800000000001 0.8906200000000000
0.9329950000000000 0.8906200000000000 0.8906200000000000
0.9329950000000000 0.6093800000000001 0.6093800000000000
0.8906200000000000 0.6406200000000000 0.8170050000000000
0.6093800000000001 0.8593800000000000 0.8170050000000000
0.6093800000000001 0.6406200000000000 0.6829950000000000
0.8906200000000000 0.8593800000000000 0.6829950000000000
0.8170050000000000 0.6406200000000000 0.8906200000000000
0.8170050000000000 0.8593800000000000 0.6093800000000000
0.6829950000000000 0.8593800000000000 0.8906200000000000
0.6829950000000000 0.6406200000000000 0.6093800000000000
0.8906200000000000 0.5670050000000000 0.8906200000000000
0.6093800000000001 0.5670050000000000 0.6093800000000000
0.8906199999999999 0.9329950000000000 0.6093800000000000
0.6093800000000000 0.9329950000000000 0.8906200000000000
0.8906200000000000 0.6406200000000000 0.6829950000000000
0.6093800000000001 0.8593800000000000 0.6829950000000000
0.8906200000000000 0.8593800000000000 0.8170050000000000
0.6093800000000001 0.6406200000000000 0.8170050000000000
0.8906200000000000 0.5670050000000000 0.6093800000000000
0.6093800000000001 0.5670050000000000 0.8906200000000000
0.6093800000000000 0.9329950000000000 0.6093800000000000
0.8906199999999999 0.9329950000000000 0.8906200000000000
0.8170050000000000 0.6406200000000000 0.6093800000000000
0.8170050000000000 0.8593800000000000 0.8906200000000000
0.6829950000000000 0.6406200000000000 0.8906200000000000
0.6829950000000000 0.8593800000000000 0.6093800000000000
0.8906200000000000 0.8906200000000000 0.5670050000000000
0.6093800000000001 0.6093800000000001 0.5670050000000000
0.6093800000000000 0.8906199999999999 0.9329950000000000
0.8906199999999999 0.6093800000000000 0.9329950000000000
0.8170050000000000 0.8906200000000000 0.6406200000000000
0.8170050000000000 0.6093800000000001 0.8593800000000000
0.6829950000000000 0.6093800000000001 0.6406200000000000
0.6829950000000000 0.8906200000000000 0.8593800000000000
0.8906200000000000 0.8170050000000000 0.6406200000000000
0.6093800000000001 0.8170050000000000 0.8593800000000000
0.8906200000000000 0.6829950000000000 0.8593800000000000
0.6093800000000001 0.6829950000000000 0.6406200000000000
0.8906199999999999 0.8906199999999999 0.9329950000000000
0.6093800000000000 0.6093800000000000 0.9329950000000000
0.8906200000000000 0.6093800000000001 0.5670050000000000
0.6093800000000001 0.8906200000000000 0.5670050000000000
0.8906200000000000 0.8170050000000000 0.8593800000000000
0.6093800000000001 0.8170050000000000 0.6406200000000000
0.6093800000000001 0.6829950000000000 0.8593800000000000
0.8906200000000000 0.6829950000000000 0.6406200000000000
0.8170050000000000 0.8906200000000000 0.8593800000000000
0.8170050000000000 0.6093800000000001 0.6406200000000000
0.6829950000000000 0.8906200000000000 0.6406200000000000
0.6829950000000000 0.6093800000000001 0.8593800000000000
0.1250000000000000 0.1250000000000000 0.0559350000000000
0.3750000000000000 0.3750000000000000 0.0559350000000000
0.3750000000000000 0.1250000000000000 0.4440650000000000
0.1250000000000000 0.3750000000000000 0.4440650000000000
0.0559350000000000 0.1250000000000000 0.1250000000000000
0.0559350000000000 0.3750000000000000 0.3750000000000000
0.4440650000000000 0.3750000000000000 0.1250000000000000
0.4440650000000000 0.1250000000000000 0.3750000000000000
0.1250000000000000 0.0559350000000000 0.1250000000000000
0.3750000000000000 0.0559350000000000 0.3750000000000000
0.1250000000000000 0.4440650000000000 0.3750000000000000
0.3750000000000000 0.4440650000000000 0.1250000000000000
0.1250000000000000 0.1250000000000000 0.4440650000000000
0.3750000000000000 0.3750000000000000 0.4440650000000000
0.1250000000000000 0.3750000000000000 0.0559350000000000
0.3750000000000000 0.1250000000000000 0.0559350000000000
0.1250000000000000 0.0559350000000000 0.3750000000000000
0.3750000000000000 0.0559350000000000 0.1250000000000000
0.3750000000000000 0.4440650000000000 0.3750000000000000
0.1250000000000000 0.4440650000000000 0.1250000000000000
0.0559350000000000 0.1250000000000000 0.3750000000000000
0.0559350000000000 0.3750000000000000 0.1250000000000000
0.4440650000000000 0.1250000000000000 0.1250000000000000
0.4440650000000000 0.3750000000000000 0.3750000000000000
0.1250000000000000 0.3750000000000000 0.3059350000000000
0.3750000000000000 0.1250000000000000 0.3059350000000000
0.3750000000000000 0.3750000000000000 0.1940650000000000
0.1250000000000000 0.1250000000000000 0.1940650000000000
0.1250000000000000 0.3059350000000001 0.3750000000000000
0.3750000000000000 0.3059350000000000 0.1250000000000000
0.1250000000000000 0.1940650000000000 0.1250000000000000
0.3750000000000000 0.1940650000000000 0.3750000000000000
0.1250000000000000 0.3750000000000000 0.1940650000000000
0.3750000000000000 0.1250000000000000 0.1940650000000000
0.1250000000000000 0.1250000000000000 0.3059350000000000
0.3750000000000000 0.3750000000000000 0.3059350000000000
0.1250000000000000 0.3059350000000000 0.1250000000000000
0.3750000000000000 0.3059350000000001 0.3750000000000000
0.3750000000000000 0.1940650000000000 0.1250000000000000
0.1250000000000000 0.1940650000000000 0.3750000000000000
0.3059350000000001 0.1250000000000000 0.3750000000000000
0.3059350000000001 0.3750000000000000 0.1250000000000000
0.1940650000000000 0.3750000000000000 0.3750000000000000
0.1940650000000000 0.1250000000000000 0.1250000000000000
0.3059350000000000 0.1250000000000000 0.1250000000000000
0.3059350000000001 0.3750000000000000 0.3750000000000000
0.1940650000000000 0.1250000000000000 0.3750000000000000
0.1940650000000000 0.3750000000000000 0.1250000000000000
0.1250000000000000 0.1250000000000000 0.5559350000000000
0.3749999999999999 0.3749999999999999 0.5559350000000000
0.3750000000000000 0.1250000000000000 0.9440650000000000
0.1250000000000000 0.3750000000000000 0.9440650000000000
0.0559350000000000 0.1250000000000000 0.6250000000000000
0.0559350000000000 0.3750000000000000 0.8750000000000000
0.4440650000000000 0.3750000000000000 0.6250000000000000
0.4440650000000000 0.1250000000000000 0.8750000000000000
0.1250000000000000 0.0559350000000000 0.6250000000000000
0.3750000000000000 0.0559350000000000 0.8750000000000000
0.1250000000000000 0.4440650000000000 0.8750000000000000
0.3750000000000000 0.4440650000000000 0.6250000000000000
0.1250000000000000 0.1250000000000000 0.9440650000000000
0.3750000000000000 0.3750000000000000 0.9440650000000000
0.1250000000000000 0.3749999999999999 0.5559350000000000
0.3749999999999999 0.1250000000000000 0.5559350000000000
0.1250000000000000 0.0559350000000000 0.8750000000000000
0.3750000000000000 0.0559350000000000 0.6250000000000000
0.3750000000000000 0.4440650000000000 0.8750000000000000
0.1250000000000000 0.4440650000000000 0.6250000000000000
0.0559350000000000 0.1250000000000000 0.8750000000000000
0.0559350000000000 0.3750000000000000 0.6250000000000000
0.4440650000000000 0.1250000000000000 0.6250000000000000
0.4440650000000000 0.3750000000000000 0.8750000000000000
0.1250000000000000 0.3750000000000000 0.8059350000000001
0.3750000000000000 0.1250000000000000 0.8059350000000001
0.3750000000000000 0.3750000000000000 0.6940650000000000
0.1250000000000000 0.1250000000000000 0.6940650000000000
0.1250000000000000 0.3059350000000000 0.8750000000000000
0.3750000000000000 0.3059350000000000 0.6250000000000000
0.1250000000000000 0.1940650000000000 0.6250000000000000
0.3750000000000000 0.1940650000000000 0.8750000000000000
0.1250000000000000 0.3750000000000000 0.6940650000000000
0.3750000000000000 0.1250000000000000 0.6940650000000000
0.1250000000000000 0.1250000000000000 0.8059350000000001
0.3750000000000000 0.3750000000000000 0.8059350000000001
0.1250000000000000 0.3059350000000000 0.6250000000000000
0.3750000000000000 0.3059350000000000 0.8750000000000000
0.3750000000000000 0.1940650000000000 0.6250000000000000
0.1250000000000000 0.1940650000000000 0.8750000000000000
0.3059350000000000 0.1250000000000000 0.8750000000000000
0.3059350000000000 0.3750000000000000 0.6250000000000000
0.1940650000000000 0.3750000000000000 0.8750000000000000
0.1940650000000000 0.1250000000000000 0.6250000000000000
0.3059350000000000 0.1250000000000000 0.6250000000000000
0.3059350000000001 0.3750000000000000 0.8750000000000000
0.1940650000000000 0.1250000000000000 0.8750000000000000
0.1940650000000000 0.3750000000000000 0.6250000000000000
0.1250000000000000 0.6250000000000000 0.0559350000000000
0.3750000000000000 0.8750000000000000 0.0559350000000000
0.3750000000000000 0.6250000000000000 0.4440650000000000
0.1250000000000000 0.8750000000000000 0.4440650000000000
0.0559350000000000 0.6250000000000000 0.1250000000000000
0.0559350000000000 0.8750000000000000 0.3750000000000000
0.4440650000000000 0.8750000000000000 0.1250000000000000
0.4440650000000000 0.6250000000000000 0.3750000000000000
0.1250000000000000 0.5559350000000000 0.1250000000000000
0.3749999999999999 0.5559350000000000 0.3750000000000000
0.1250000000000000 0.9440650000000000 0.3750000000000000
0.3750000000000000 0.9440650000000000 0.1250000000000000
0.1250000000000000 0.6250000000000000 0.4440650000000000
0.3750000000000000 0.8750000000000000 0.4440650000000000
0.1250000000000000 0.8750000000000000 0.0559350000000000
0.3750000000000000 0.6250000000000000 0.0559350000000000
0.1250000000000000 0.5559350000000000 0.3750000000000000
0.3749999999999999 0.5559350000000000 0.1250000000000000
0.3750000000000000 0.9440650000000000 0.3750000000000000
0.1250000000000000 0.9440650000000000 0.1250000000000000
0.0559350000000000 0.6250000000000000 0.3750000000000000
0.0559350000000000 0.8750000000000000 0.1250000000000000
0.4440650000000000 0.6250000000000000 0.1250000000000000
0.4440650000000000 0.8750000000000000 0.3750000000000000
0.1250000000000000 0.8750000000000000 0.3059350000000000
0.3750000000000000 0.6250000000000000 0.3059350000000000
0.3750000000000000 0.8750000000000000 0.1940650000000000
0.1250000000000000 0.6250000000000000 0.1940650000000000
0.1250000000000000 0.8059350000000001 0.3750000000000000
0.3750000000000000 0.8059350000000001 0.1250000000000000
0.1250000000000000 0.6940650000000000 0.1250000000000000
0.3750000000000000 0.6940650000000000 0.3750000000000000
0.1250000000000000 0.8750000000000000 0.1940650000000000
0.3750000000000000 0.6250000000000000 0.1940650000000000
0.1250000000000000 0.6250000000000000 0.3059350000000000
0.3750000000000000 0.8750000000000000 0.3059350000000000
0.1250000000000000 0.8059350000000001 0.1250000000000000
0.3750000000000000 0.8059350000000001 0.3750000000000000
0.3750000000000000 0.6940650000000000 0.1250000000000000
0.1250000000000000 0.6940650000000000 0.3750000000000000
0.3059350000000000 0.6250000000000000 0.3750000000000000
0.3059350000000000 0.8750000000000000 0.1250000000000000
0.1940650000000000 0.8750000000000000 0.3750000000000000
0.1940650000000000 0.6250000000000000 0.1250000000000000
0.3059350000000000 0.6250000000000000 0.1250000000000000
0.3059350000000001 0.8750000000000000 0.3750000000000000
0.1940650000000000 0.6250000000000000 0.3750000000000000
0.1940650000000000 0.8750000000000000 0.1250000000000000
0.1250000000000000 0.6250000000000000 0.5559350000000000
0.3749999999999999 0.8750000000000000 0.5559350000000000
0.3750000000000001 0.6249999999999999 0.9440650000000000
0.1250000000000000 0.8749999999999999 0.9440650000000000
0.0559350000000000 0.6250000000000000 0.6250000000000000
0.0559350000000000 0.8750000000000000 0.8750000000000000
0.4440650000000000 0.8750000000000000 0.6250000000000000
0.4440650000000000 0.6250000000000000 0.8750000000000000
0.1250000000000000 0.5559350000000001 0.6250000000000000
0.3749999999999999 0.5559350000000001 0.8750000000000000
0.1250000000000000 0.9440650000000000 0.8750000000000000
0.3750000000000001 0.9440650000000000 0.6250000000000000
0.1250000000000000 0.6249999999999999 0.9440650000000000
0.3750000000000001 0.8749999999999999 0.9440650000000000
0.1250000000000000 0.8750000000000000 0.5559350000000000
0.3749999999999999 0.6250000000000000 0.5559350000000000
0.1250000000000000 0.5559350000000001 0.8750000000000000
0.3749999999999999 0.5559350000000001 0.6250000000000000
0.3750000000000001 0.9440650000000000 0.8750000000000000
0.1250000000000000 0.9440650000000000 0.6250000000000000
0.0559350000000000 0.6250000000000000 0.8750000000000000
0.0559350000000000 0.8750000000000000 0.6250000000000000
0.4440650000000000 0.6250000000000000 0.6250000000000000
0.4440650000000000 0.8750000000000000 0.8750000000000000
0.1250000000000000 0.8750000000000000 0.8059350000000001
0.3750000000000001 0.6250000000000000 0.8059350000000001
0.3750000000000001 0.8750000000000000 0.6940650000000000
0.1250000000000000 0.6250000000000000 0.6940650000000000
0.1250000000000000 0.8059350000000001 0.8750000000000000
0.3750000000000001 0.8059350000000001 0.6250000000000000
0.1250000000000000 0.6940650000000000 0.6250000000000000
0.3750000000000001 0.6940650000000000 0.8750000000000000
0.1250000000000000 0.8750000000000000 0.6940650000000000
0.3750000000000001 0.6250000000000000 0.6940650000000000
0.1250000000000000 0.6250000000000000 0.8059350000000001
0.3750000000000001 0.8750000000000000 0.8059350000000001
0.1250000000000000 0.8059350000000001 0.6250000000000000
0.3750000000000001 0.8059350000000001 0.8750000000000000
0.3750000000000001 0.6940650000000000 0.6250000000000000
0.1250000000000000 0.6940650000000000 0.8750000000000000
0.3059350000000000 0.6250000000000000 0.8750000000000000
0.3059350000000000 0.8750000000000000 0.6250000000000000
0.1940650000000000 0.8750000000000000 0.8750000000000000
0.1940650000000000 0.6250000000000000 0.6250000000000000
0.3059350000000000 0.6250000000000000 0.6250000000000000
0.3059350000000000 0.8750000000000000 0.8750000000000000
0.1940650000000000 0.6250000000000000 0.8750000000000000
0.1940650000000000 0.8750000000000000 0.6250000000000000
0.6250000000000000 0.1250000000000000 0.0559350000000000
0.8750000000000000 0.3750000000000000 0.0559350000000000
0.8750000000000000 0.1250000000000000 0.4440650000000000
0.6250000000000000 0.3750000000000000 0.4440650000000000
0.5559350000000000 0.1250000000000000 0.1250000000000000
0.5559350000000000 0.3750000000000000 0.3750000000000000
0.9440650000000000 0.3750000000000000 0.1250000000000000
0.9440650000000000 0.1250000000000000 0.3750000000000000
0.6250000000000000 0.0559350000000000 0.1250000000000000
0.8750000000000000 0.0559350000000000 0.3750000000000000
0.6250000000000000 0.4440650000000000 0.3750000000000000
0.8750000000000000 0.4440650000000000 0.1250000000000000
0.6250000000000000 0.1250000000000000 0.4440650000000000
0.8750000000000000 0.3750000000000000 0.4440650000000000
0.6250000000000000 0.3750000000000000 0.0559350000000000
0.8750000000000000 0.1250000000000000 0.0559350000000000
0.6250000000000000 0.0559350000000000 0.3750000000000000
0.8750000000000000 0.0559350000000000 0.1250000000000000
0.8750000000000000 0.4440650000000000 0.3750000000000000
0.6250000000000000 0.4440650000000000 0.1250000000000000
0.5559350000000000 0.1250000000000000 0.3750000000000000
0.5559350000000000 0.3750000000000000 0.1250000000000000
0.9440650000000000 0.1250000000000000 0.1250000000000000
0.9440650000000000 0.3750000000000000 0.3750000000000000
0.6250000000000000 0.3750000000000000 0.3059350000000000
0.8750000000000000 0.1250000000000000 0.3059350000000000
0.8750000000000000 0.3750000000000000 0.1940650000000000
0.6250000000000000 0.1250000000000000 0.1940650000000000
0.6250000000000000 0.3059350000000001 0.3750000000000000
0.8750000000000000 0.3059350000000000 0.1250000000000000
0.6250000000000000 0.1940650000000000 0.1250000000000000
0.8750000000000000 0.1940650000000000 0.3750000000000000
0.6250000000000000 0.3750000000000000 0.1940650000000000
0.8750000000000000 0.1250000000000000 0.1940650000000000
0.6250000000000000 0.1250000000000000 0.3059350000000000
0.8750000000000000 0.3750000000000000 0.3059350000000000
0.6250000000000000 0.3059350000000000 0.1250000000000000
0.8750000000000000 0.3059350000000001 0.3750000000000000
0.8750000000000000 0.1940650000000000 0.1250000000000000
0.6250000000000000 0.1940650000000000 0.3750000000000000
0.8059350000000001 0.1250000000000000 0.3750000000000000
0.8059350000000001 0.3750000000000000 0.1250000000000000
0.6940650000000000 0.3750000000000000 0.3750000000000000
0.6940650000000000 0.1250000000000000 0.1250000000000000
0.8059350000000001 0.1250000000000000 0.1250000000000000
0.8059350000000001 0.3750000000000000 0.3750000000000000
0.6940650000000000 0.1250000000000000 0.3750000000000000
0.6940650000000000 0.3750000000000000 0.1250000000000000
0.6250000000000000 0.1250000000000000 0.5559350000000000
0.8750000000000000 0.3749999999999999 0.5559350000000000
0.8749999999999999 0.1250000000000000 0.9440650000000000
0.6249999999999999 0.3750000000000000 0.9440650000000000
0.5559350000000001 0.1250000000000000 0.6250000000000000
0.5559350000000001 0.3750000000000000 0.8750000000000000
0.9440650000000000 0.3750000000000000 0.6250000000000000
0.9440650000000000 0.1250000000000000 0.8750000000000000
0.6250000000000000 0.0559350000000000 0.6250000000000000
0.8750000000000000 0.0559350000000000 0.8750000000000000
0.6250000000000000 0.4440650000000000 0.8750000000000000
0.8750000000000000 0.4440650000000000 0.6250000000000000
0.6249999999999999 0.1250000000000000 0.9440650000000000
0.8749999999999999 0.3750000000000000 0.9440650000000000
0.6250000000000000 0.3749999999999999 0.5559350000000000
0.8750000000000000 0.1250000000000000 0.5559350000000000
0.6250000000000000 0.0559350000000000 0.8750000000000000
0.8750000000000000 0.0559350000000000 0.6250000000000000
0.8750000000000000 0.4440650000000000 0.8750000000000000
0.6250000000000000 0.4440650000000000 0.6250000000000000
0.5559350000000001 0.1250000000000000 0.8750000000000000
0.5559350000000001 0.3750000000000000 0.6250000000000000
0.9440650000000000 0.1250000000000000 0.6250000000000000
0.9440650000000000 0.3750000000000000 0.8750000000000000
0.6250000000000000 0.3750000000000000 0.8059350000000001
0.8750000000000000 0.1250000000000000 0.8059350000000001
0.8750000000000000 0.3750000000000000 0.6940650000000000
0.6250000000000000 0.1250000000000000 0.6940650000000000
0.6250000000000000 0.3059350000000000 0.8750000000000000
0.8750000000000000 0.3059350000000000 0.6250000000000000
0.6250000000000000 0.1940650000000000 0.6250000000000000
0.8750000000000000 0.1940650000000000 0.8750000000000000
0.6250000000000000 0.3750000000000000 0.6940650000000000
0.8750000000000000 0.1250000000000000 0.6940650000000000
0.6250000000000000 0.1250000000000000 0.8059350000000001
0.8750000000000000 0.3750000000000000 0.8059350000000001
0.6250000000000000 0.3059350000000000 0.6250000000000000
0.8750000000000000 0.3059350000000000 0.8750000000000000
0.8750000000000000 0.1940650000000000 0.6250000000000000
0.6250000000000000 0.1940650000000000 0.8750000000000000
0.8059350000000001 0.1250000000000000 0.8750000000000000
0.8059350000000001 0.3750000000000000 0.6250000000000000
0.6940650000000000 0.3750000000000000 0.8750000000000000
0.6940650000000000 0.1250000000000000 0.6250000000000000
0.8059350000000001 0.1250000000000000 0.6250000000000000
0.8059350000000001 0.3750000000000000 0.8750000000000000
0.6940650000000000 0.1250000000000000 0.8750000000000000
0.6940650000000000 0.3750000000000000 0.6250000000000000
0.6250000000000000 0.6250000000000000 0.0559350000000000
0.8750000000000000 0.8750000000000000 0.0559350000000000
0.8750000000000000 0.6250000000000000 0.4440650000000000
0.6250000000000000 0.8750000000000000 0.4440650000000000
0.5559350000000001 0.6250000000000000 0.1250000000000000
0.5559350000000001 0.8750000000000000 0.3750000000000000
0.9440650000000000 0.8750000000000000 0.1250000000000000
0.9440650000000000 0.6250000000000000 0.3750000000000000
0.6250000000000000 0.5559350000000000 0.1250000000000000
0.8750000000000000 0.5559350000000000 0.3750000000000000
0.6249999999999999 0.9440650000000000 0.3750000000000000
0.8749999999999999 0.9440650000000000 0.1250000000000000
0.6250000000000000 0.6250000000000000 0.4440650000000000
0.8750000000000000 0.8750000000000000 0.4440650000000000
0.6250000000000000 0.8750000000000000 0.0559350000000000
0.8750000000000000 0.6250000000000000 0.0559350000000000
0.6250000000000000 0.5559350000000000 0.3750000000000000
0.8750000000000000 0.5559350000000000 0.1250000000000000
0.8749999999999999 0.9440650000000000 0.3750000000000000
0.6249999999999999 0.9440650000000000 0.1250000000000000
0.5559350000000001 0.6250000000000000 0.3750000000000000
0.5559350000000001 0.8750000000000000 0.1250000000000000
0.9440650000000000 0.6250000000000000 0.1250000000000000
0.9440650000000000 0.8750000000000000 0.3750000000000000
0.6250000000000000 0.8750000000000000 0.3059350000000000
0.8750000000000000 0.6250000000000000 0.3059350000000000
0.8750000000000000 0.8750000000000000 0.1940650000000000
0.6250000000000000 0.6250000000000000 0.1940650000000000
0.6250000000000000 0.8059350000000001 0.3750000000000000
0.8750000000000000 0.8059350000000001 0.1250000000000000
0.6250000000000000 0.6940650000000000 0.1250000000000000
0.8750000000000000 0.6940650000000000 0.3750000000000000
0.6250000000000000 0.8750000000000000 0.1940650000000000
0.8750000000000000 0.6250000000000000 0.1940650000000000
0.6250000000000000 0.6250000000000000 0.3059350000000000
0.8750000000000000 0.8750000000000000 0.3059350000000000
0.6250000000000000 0.8059350000000001 0.1250000000000000
0.8750000000000000 0.8059350000000001 0.3750000000000000
0.8750000000000000 0.6940650000000000 0.1250000000000000
0.6250000000000000 0.6940650000000000 0.3750000000000000
0.8059350000000001 0.6250000000000000 0.3750000000000000
0.8059350000000001 0.8750000000000000 0.1250000000000000
0.6940650000000000 0.8750000000000000 0.3750000000000000
0.6940650000000000 0.6250000000000000 0.1250000000000000
0.8059350000000001 0.6250000000000000 0.1250000000000000
0.8059350000000001 0.8750000000000000 0.3750000000000000
0.6940650000000000 0.6250000000000000 0.3750000000000000
0.6940650000000000 0.8750000000000000 0.1250000000000000
0.6250000000000000 0.6250000000000000 0.5559350000000000
0.8750000000000000 0.8750000000000000 0.5559350000000000
0.8749999999999999 0.6249999999999999 0.9440650000000000
0.6249999999999999 0.8749999999999999 0.9440650000000000
0.5559350000000001 0.6250000000000000 0.6250000000000000
0.5559350000000001 0.8750000000000000 0.8750000000000000
0.9440650000000000 0.8750000000000000 0.6250000000000000
0.9440650000000000 0.6250000000000000 0.8750000000000000
0.6250000000000000 0.5559350000000001 0.6250000000000000
0.8750000000000000 0.5559350000000001 0.8750000000000000
0.6249999999999999 0.9440650000000000 0.8750000000000000
0.8749999999999999 0.9440650000000000 0.6250000000000000
0.6249999999999999 0.6249999999999999 0.9440650000000000
0.8749999999999999 0.8749999999999999 0.9440650000000000
0.6250000000000000 0.8750000000000000 0.5559350000000000
0.8750000000000000 0.6250000000000000 0.5559350000000000
0.6250000000000000 0.5559350000000001 0.8750000000000000
0.8750000000000000 0.5559350000000001 0.6250000000000000
0.8749999999999999 0.9440650000000000 0.8750000000000000
0.6249999999999999 0.9440650000000000 0.6250000000000000
0.5559350000000001 0.6250000000000000 0.8750000000000000
0.5559350000000001 0.8750000000000000 0.6250000000000000
0.9440650000000000 0.6250000000000000 0.6250000000000000
0.9440650000000000 0.8750000000000000 0.8750000000000000
0.6250000000000000 0.8750000000000000 0.8059350000000001
0.8750000000000000 0.6250000000000000 0.8059350000000001
0.8750000000000000 0.8750000000000000 0.6940650000000000
0.6250000000000000 0.6250000000000000 0.6940650000000000
0.6250000000000000 0.8059350000000001 0.8750000000000000
0.8750000000000000 0.8059350000000001 0.6250000000000000
0.6250000000000000 0.6940650000000000 0.6250000000000000
0.8750000000000000 0.6940650000000000 0.8750000000000000
0.6250000000000000 0.8750000000000000 0.6940650000000000
0.8750000000000000 0.6250000000000000 0.6940650000000000
0.6250000000000000 0.6250000000000000 0.8059350000000001
0.8750000000000000 0.8750000000000000 0.8059350000000001
0.6250000000000000 0.8059350000000001 0.6250000000000000
0.8750000000000000 0.8059350000000001 0.8750000000000000
0.8750000000000000 0.6940650000000000 0.6250000000000000
0.6250000000000000 0.6940650000000000 0.8750000000000000
0.8059350000000001 0.6250000000000000 0.8750000000000000
0.8059350000000001 0.8750000000000000 0.6250000000000000
0.6940650000000000 0.8750000000000000 0.8750000000000000
0.6940650000000000 0.6250000000000000 0.6250000000000000
0.8059350000000001 0.6250000000000000 0.6250000000000000
0.8059350000000001 0.8750000000000000 0.8750000000000000
0.6940650000000000 0.6250000000000000 0.8750000000000000
0.6940650000000000 0.8750000000000000 0.6250000000000000
0.1250000000000000 0.1250000000000000 0.0272350000000000
0.3750000000000000 0.3750000000000000 0.0272350000000000
0.3749999999999999 0.1250000000000000 0.4727650000000000
0.1250000000000000 0.3749999999999999 0.4727650000000000
0.0272350000000000 0.1250000000000000 0.1250000000000000
0.0272350000000000 0.3750000000000000 0.3750000000000000
0.4727650000000000 0.3750000000000000 0.1250000000000000
0.4727650000000000 0.1250000000000000 0.3750000000000000
0.1250000000000000 0.0272350000000000 0.1250000000000000
0.3750000000000000 0.0272350000000000 0.3750000000000000
0.1250000000000000 0.4727650000000000 0.3750000000000000
0.3749999999999999 0.4727650000000000 0.1250000000000000
0.1250000000000000 0.1250000000000000 0.4727650000000000
0.3749999999999999 0.3749999999999999 0.4727650000000000
0.1250000000000000 0.3750000000000000 0.0272350000000000
0.3750000000000000 0.1250000000000000 0.0272350000000000
0.1250000000000000 0.0272350000000000 0.3750000000000000
0.3750000000000000 0.0272350000000000 0.1250000000000000
0.3749999999999999 0.4727650000000000 0.3750000000000000
0.1250000000000000 0.4727650000000000 0.1250000000000000
0.0272350000000000 0.1250000000000000 0.3750000000000000
0.0272350000000000 0.3750000000000000 0.1250000000000000
0.4727650000000000 0.1250000000000000 0.1250000000000000
0.4727650000000000 0.3750000000000000 0.3750000000000000
0.1250000000000000 0.3750000000000000 0.2772350000000000
0.3750000000000000 0.1250000000000000 0.2772350000000000
0.3750000000000000 0.3750000000000000 0.2227650000000000
0.1250000000000000 0.1250000000000000 0.2227650000000000
0.1250000000000000 0.2772350000000001 0.3750000000000000
0.3750000000000000 0.2772350000000000 0.1250000000000000
0.1250000000000000 0.2227650000000000 0.1250000000000000
0.3750000000000000 0.2227650000000000 0.3750000000000000
0.1250000000000000 0.3750000000000000 0.2227650000000000
0.3750000000000000 0.1250000000000000 0.2227650000000000
0.1250000000000000 0.1250000000000000 0.2772350000000000
0.3750000000000000 0.3750000000000000 0.2772350000000000
0.1250000000000000 0.2772350000000000 0.1250000000000000
0.3750000000000000 0.2772350000000001 0.3750000000000000
0.3750000000000000 0.2227650000000000 0.1250000000000000
0.1250000000000000 0.2227650000000000 0.3750000000000000
0.2772350000000001 0.1250000000000000 0.3750000000000000
0.2772350000000001 0.3750000000000000 0.1250000000000000
0.2227650000000000 0.3750000000000000 0.3750000000000000
0.2227650000000000 0.1250000000000000 0.1250000000000000
0.2772350000000000 0.1250000000000000 0.1250000000000000
0.2772350000000001 0.3750000000000000 0.3750000000000000
0.2227650000000000 0.1250000000000000 0.3750000000000000
0.2227650000000000 0.3750000000000000 0.1250000000000000
0.1250000000000000 0.1250000000000000 0.5272350000000000
0.3749999999999999 0.3749999999999999 0.5272350000000000
0.3750000000000000 0.1250000000000000 0.9727650000000000
0.1250000000000000 0.3750000000000000 0.9727650000000000
0.0272350000000000 0.1250000000000000 0.6250000000000000
0.0272350000000000 0.3750000000000000 0.8750000000000000
0.4727650000000000 0.3750000000000000 0.6250000000000000
0.4727650000000000 0.1250000000000000 0.8750000000000000
0.1250000000000000 0.0272350000000000 0.6250000000000000
0.3750000000000000 0.0272350000000000 0.8750000000000000
0.1250000000000000 0.4727650000000000 0.8750000000000000
0.3749999999999999 0.4727650000000000 0.6250000000000000
0.1250000000000000 0.1250000000000000 0.9727650000000000
0.3750000000000000 0.3750000000000000 0.9727650000000000
0.1250000000000000 0.3749999999999999 0.5272350000000000
0.3749999999999999 0.1250000000000000 0.5272350000000000
0.1250000000000000 0.0272350000000000 0.8750000000000000
0.3750000000000000 0.0272350000000000 0.6250000000000000
0.3749999999999999 0.4727650000000000 0.8750000000000000
0.1250000000000000 0.4727650000000000 0.6250000000000000
0.0272350000000000 0.1250000000000000 0.8750000000000000
0.0272350000000000 0.3750000000000000 0.6250000000000000
0.4727650000000000 0.1250000000000000 0.6250000000000000
0.4727650000000000 0.3750000000000000 0.8750000000000000
0.1250000000000000 0.3750000000000000 0.7772350000000000
0.3750000000000000 0.1250000000000000 0.7772350000000000
0.3750000000000000 0.3750000000000000 0.7227650000000000
0.1250000000000000 0.1250000000000000 0.7227650000000000
0.1250000000000000 0.2772350000000000 0.8750000000000000
0.3750000000000000 0.2772350000000000 0.6250000000000000
0.1250000000000000 0.2227650000000000 0.6250000000000000
0.3750000000000000 0.2227650000000000 0.8750000000000000
0.1250000000000000 0.3750000000000000 0.7227650000000000
0.3750000000000000 0.1250000000000000 0.7227650000000000
0.1250000000000000 0.1250000000000000 0.7772350000000000
0.3750000000000000 0.3750000000000000 0.7772350000000000
0.1250000000000000 0.2772350000000000 0.6250000000000000
0.3750000000000000 0.2772350000000000 0.8750000000000000
0.3750000000000000 0.2227650000000000 0.6250000000000000
0.1250000000000000 0.2227650000000000 0.8750000000000000
0.2772350000000000 0.1250000000000000 0.8750000000000000
0.2772350000000000 0.3750000000000000 0.6250000000000000
0.2227650000000000 0.3750000000000000 0.8750000000000000
0.2227650000000000 0.1250000000000000 0.6250000000000000
0.2772350000000000 0.1250000000000000 0.6250000000000000
0.2772350000000001 0.3750000000000000 0.8750000000000000
0.2227650000000000 0.1250000000000000 0.8750000000000000
0.2227650000000000 0.3750000000000000 0.6250000000000000
0.1250000000000000 0.6250000000000000 0.0272350000000000
0.3750000000000000 0.8750000000000000 0.0272350000000000
0.3749999999999999 0.6250000000000000 0.4727650000000000
0.1250000000000000 0.8750000000000000 0.4727650000000000
0.0272350000000000 0.6250000000000000 0.1250000000000000
0.0272350000000000 0.8750000000000000 0.3750000000000000
0.4727650000000000 0.8750000000000000 0.1250000000000000
0.4727650000000000 0.6250000000000000 0.3750000000000000
0.1250000000000000 0.5272350000000000 0.1250000000000000
0.3749999999999999 0.5272350000000000 0.3750000000000000
0.1250000000000000 0.9727650000000000 0.3750000000000000
0.3750000000000000 0.9727650000000000 0.1250000000000000
0.1250000000000000 0.6250000000000000 0.4727650000000000
0.3749999999999999 0.8750000000000000 0.4727650000000000
0.1250000000000000 0.8750000000000000 0.0272350000000000
0.3750000000000000 0.6250000000000000 0.0272350000000000
0.1250000000000000 0.5272350000000000 0.3750000000000000
0.3749999999999999 0.5272350000000000 0.1250000000000000
0.3750000000000000 0.9727650000000000 0.3750000000000000
0.1250000000000000 0.9727650000000000 0.1250000000000000
0.0272350000000000 0.6250000000000000 0.3750000000000000
0.0272350000000000 0.8750000000000000 0.1250000000000000
0.4727650000000000 0.6250000000000000 0.1250000000000000
0.4727650000000000 0.8750000000000000 0.3750000000000000
0.1250000000000000 0.8750000000000000 0.2772350000000000
0.3750000000000000 0.6250000000000000 0.2772350000000000
0.3750000000000000 0.8750000000000000 0.2227650000000000
0.1250000000000000 0.6250000000000000 0.2227650000000000
0.1250000000000000 0.7772350000000000 0.3750000000000000
0.3750000000000000 0.7772350000000000 0.1250000000000000
0.1250000000000000 0.7227650000000000 0.1250000000000000
0.3750000000000000 0.7227650000000000 0.3750000000000000
0.1250000000000000 0.8750000000000000 0.2227650000000000
0.3750000000000000 0.6250000000000000 0.2227650000000000
0.1250000000000000 0.6250000000000000 0.2772350000000000
0.3750000000000000 0.8750000000000000 0.2772350000000000
0.1250000000000000 0.7772350000000000 0.1250000000000000
0.3750000000000000 0.7772350000000000 0.3750000000000000
0.3750000000000000 0.7227650000000000 0.1250000000000000
0.1250000000000000 0.7227650000000000 0.3750000000000000
0.2772350000000000 0.6250000000000000 0.3750000000000000
0.2772350000000000 0.8750000000000000 0.1250000000000000
0.2227650000000000 0.8750000000000000 0.3750000000000000
0.2227650000000000 0.6250000000000000 0.1250000000000000
0.2772350000000000 0.6250000000000000 0.1250000000000000
0.2772350000000001 0.8750000000000000 0.3750000000000000
0.2227650000000000 0.6250000000000000 0.3750000000000000
0.2227650000000000 0.8750000000000000 0.1250000000000000
0.1250000000000000 0.6250000000000000 0.5272350000000000
0.3749999999999999 0.8750000000000000 0.5272350000000000
0.3750000000000001 0.6249999999999999 0.9727650000000000
0.1250000000000000 0.8749999999999999 0.9727650000000000
0.0272350000000000 0.6250000000000000 0.6250000000000000
0.0272350000000000 0.8750000000000000 0.8750000000000000
0.4727650000000000 0.8750000000000000 0.6250000000000000
0.4727650000000000 0.6250000000000000 0.8750000000000000
0.1250000000000000 0.5272350000000001 0.6250000000000000
0.3749999999999999 0.5272350000000001 0.8750000000000000
0.1250000000000000 0.9727650000000000 0.8750000000000000
0.3750000000000001 0.9727650000000000 0.6250000000000000
0.1250000000000000 0.6249999999999999 0.9727650000000000
0.3750000000000001 0.8749999999999999 0.9727650000000000
0.1250000000000000 0.8750000000000000 0.5272350000000000
0.3749999999999999 0.6250000000000000 0.5272350000000000
0.1250000000000000 0.5272350000000001 0.8750000000000000
0.3749999999999999 0.5272350000000001 0.6250000000000000
0.3750000000000001 0.9727650000000000 0.8750000000000000
0.1250000000000000 0.9727650000000000 0.6250000000000000
0.0272350000000000 0.6250000000000000 0.8750000000000000
0.0272350000000000 0.8750000000000000 0.6250000000000000
0.4727650000000000 0.6250000000000000 0.6250000000000000
0.4727650000000000 0.8750000000000000 0.8750000000000000
0.1250000000000000 0.8750000000000000 0.7772350000000000
0.3750000000000001 0.6250000000000000 0.7772350000000000
0.3750000000000001 0.8750000000000000 0.7227650000000000
0.1250000000000000 0.6250000000000000 0.7227650000000000
0.1250000000000000 0.7772350000000000 0.8750000000000000
0.3750000000000001 0.7772350000000000 0.6250000000000000
0.1250000000000000 0.7227650000000000 0.6250000000000000
0.3750000000000001 0.7227650000000000 0.8750000000000000
0.1250000000000000 0.8750000000000000 0.7227650000000000
0.3750000000000001 0.6250000000000000 0.7227650000000000
0.1250000000000000 0.6250000000000000 0.7772350000000000
0.3750000000000001 0.8750000000000000 0.7772350000000000
0.1250000000000000 0.7772350000000000 0.6250000000000000
0.3750000000000001 0.7772350000000000 0.8750000000000000
0.3750000000000001 0.7227650000000000 0.6250000000000000
0.1250000000000000 0.7227650000000000 0.8750000000000000
0.2772350000000000 0.6250000000000000 0.8750000000000000
0.2772350000000000 0.8750000000000000 0.6250000000000000
0.2227650000000000 0.8750000000000000 0.8750000000000000
0.2227650000000000 0.6250000000000000 0.6250000000000000
0.2772350000000000 0.6250000000000000 0.6250000000000000
0.2772350000000001 0.8750000000000000 0.8750000000000000
0.2227650000000000 0.6250000000000000 0.8750000000000000
0.2227650000000000 0.8750000000000000 0.6250000000000000
0.6250000000000000 0.1250000000000000 0.0272350000000000
0.8750000000000000 0.3750000000000000 0.0272350000000000
0.8750000000000000 0.1250000000000000 0.4727650000000000
0.6250000000000000 0.3749999999999999 0.4727650000000000
0.5272350000000000 0.1250000000000000 0.1250000000000000
0.5272350000000000 0.3750000000000000 0.3750000000000000
0.9727650000000000 0.3750000000000000 0.1250000000000000
0.9727650000000000 0.1250000000000000 0.3750000000000000
0.6250000000000000 0.0272350000000000 0.1250000000000000
0.8750000000000000 0.0272350000000000 0.3750000000000000
0.6250000000000000 0.4727650000000000 0.3750000000000000
0.8750000000000000 0.4727650000000000 0.1250000000000000
0.6250000000000000 0.1250000000000000 0.4727650000000000
0.8750000000000000 0.3749999999999999 0.4727650000000000
0.6250000000000000 0.3750000000000000 0.0272350000000000
0.8750000000000000 0.1250000000000000 0.0272350000000000
0.6250000000000000 0.0272350000000000 0.3750000000000000
0.8750000000000000 0.0272350000000000 0.1250000000000000
0.8750000000000000 0.4727650000000000 0.3750000000000000
0.6250000000000000 0.4727650000000000 0.1250000000000000
0.5272350000000000 0.1250000000000000 0.3750000000000000
0.5272350000000000 0.3750000000000000 0.1250000000000000
0.9727650000000000 0.1250000000000000 0.1250000000000000
0.9727650000000000 0.3750000000000000 0.3750000000000000
0.6250000000000000 0.3750000000000000 0.2772350000000000
0.8750000000000000 0.1250000000000000 0.2772350000000000
0.8750000000000000 0.3750000000000000 0.2227650000000000
0.6250000000000000 0.1250000000000000 0.2227650000000000
0.6250000000000000 0.2772350000000001 0.3750000000000000
0.8750000000000000 0.2772350000000000 0.1250000000000000
0.6250000000000000 0.2227650000000000 0.1250000000000000
0.8750000000000000 0.2227650000000000 0.3750000000000000
0.6250000000000000 0.3750000000000000 0.2227650000000000
0.8750000000000000 0.1250000000000000 0.2227650000000000
0.6250000000000000 0.1250000000000000 0.2772350000000000
0.8750000000000000 0.3750000000000000 0.2772350000000000
0.6250000000000000 0.2772350000000000 0.1250000000000000
0.8750000000000000 0.2772350000000001 0.3750000000000000
0.8750000000000000 0.2227650000000000 0.1250000000000000
0.6250000000000000 0.2227650000000000 0.3750000000000000
0.7772350000000000 0.1250000000000000 0.3750000000000000
0.7772350000000000 0.3750000000000000 0.1250000000000000
0.7227650000000000 0.3750000000000000 0.3750000000000000
0.7227650000000000 0.1250000000000000 0.1250000000000000
0.7772350000000000 0.1250000000000000 0.1250000000000000
0.7772350000000000 0.3750000000000000 0.3750000000000000
0.7227650000000000 0.1250000000000000 0.3750000000000000
0.7227650000000000 0.3750000000000000 0.1250000000000000
0.6250000000000000 0.1250000000000000 0.5272350000000000
0.8750000000000000 0.3749999999999999 0.5272350000000000
0.8749999999999999 0.1250000000000000 0.9727650000000000
0.6249999999999999 0.3750000000000000 0.9727650000000000
0.5272350000000001 0.1250000000000000 0.6250000000000000
0.5272350000000001 0.3750000000000000 0.8750000000000000
0.9727650000000000 0.3750000000000000 0.6250000000000000
0.9727650000000000 0.1250000000000000 0.8750000000000000
0.6250000000000000 0.0272350000000000 0.6250000000000000
0.8750000000000000 0.0272350000000000 0.8750000000000000
0.6250000000000000 0.4727650000000000 0.8750000000000000
0.8750000000000000 0.4727650000000000 0.6250000000000000
0.6249999999999999 0.1250000000000000 0.9727650000000000
0.8749999999999999 0.3750000000000000 0.9727650000000000
0.6250000000000000 0.3749999999999999 0.5272350000000000
0.8750000000000000 0.1250000000000000 0.5272350000000000
0.6250000000000000 0.0272350000000000 0.8750000000000000
0.8750000000000000 0.0272350000000000 0.6250000000000000
0.8750000000000000 0.4727650000000000 0.8750000000000000
0.6250000000000000 0.4727650000000000 0.6250000000000000
0.5272350000000001 0.1250000000000000 0.8750000000000000
0.5272350000000001 0.3750000000000000 0.6250000000000000
0.9727650000000000 0.1250000000000000 0.6250000000000000
0.9727650000000000 0.3750000000000000 0.8750000000000000
0.6250000000000000 0.3750000000000000 0.7772350000000000
0.8750000000000000 0.1250000000000000 0.7772350000000000
0.8750000000000000 0.3750000000000000 0.7227650000000000
0.6250000000000000 0.1250000000000000 0.7227650000000000
0.6250000000000000 0.2772350000000000 0.8750000000000000
0.8750000000000000 0.2772350000000000 0.6250000000000000
0.6250000000000000 0.2227650000000000 0.6250000000000000
0.8750000000000000 0.2227650000000000 0.8750000000000000
0.6250000000000000 0.3750000000000000 0.7227650000000000
0.8750000000000000 0.1250000000000000 0.7227650000000000
0.6250000000000000 0.1250000000000000 0.7772350000000000
0.8750000000000000 0.3750000000000000 0.7772350000000000
0.6250000000000000 0.2772350000000000 0.6250000000000000
0.8750000000000000 0.2772350000000000 0.8750000000000000
0.8750000000000000 0.2227650000000000 0.6250000000000000
0.6250000000000000 0.2227650000000000 0.8750000000000000
0.7772350000000000 0.1250000000000000 0.8750000000000000
0.7772350000000000 0.3750000000000000 0.6250000000000000
0.7227650000000000 0.3750000000000000 0.8750000000000000
0.7227650000000000 0.1250000000000000 0.6250000000000000
0.7772350000000000 0.1250000000000000 0.6250000000000000
0.7772350000000000 0.3750000000000000 0.8750000000000000
0.7227650000000000 0.1250000000000000 0.8750000000000000
0.7227650000000000 0.3750000000000000 0.6250000000000000
0.6250000000000000 0.6250000000000000 0.0272350000000000
0.8750000000000000 0.8750000000000000 0.0272350000000000
0.8750000000000000 0.6250000000000000 0.4727650000000000
0.6250000000000000 0.8750000000000000 0.4727650000000000
0.5272350000000001 0.6250000000000000 0.1250000000000000
0.5272350000000001 0.8750000000000000 0.3750000000000000
0.9727650000000000 0.8750000000000000 0.1250000000000000
0.9727650000000000 0.6250000000000000 0.3750000000000000
0.6250000000000000 0.5272350000000000 0.1250000000000000
0.8750000000000000 0.5272350000000000 0.3750000000000000
0.6249999999999999 0.9727650000000000 0.3750000000000000
0.8749999999999999 0.9727650000000000 0.1250000000000000
0.6250000000000000 0.6250000000000000 0.4727650000000000
0.8750000000000000 0.8750000000000000 0.4727650000000000
0.6250000000000000 0.8750000000000000 0.0272350000000000
0.8750000000000000 0.6250000000000000 0.0272350000000000
0.6250000000000000 0.5272350000000000 0.3750000000000000
0.8750000000000000 0.5272350000000000 0.1250000000000000
0.8749999999999999 0.9727650000000000 0.3750000000000000
0.6249999999999999 0.9727650000000000 0.1250000000000000
0.5272350000000001 0.6250000000000000 0.3750000000000000
0.5272350000000001 0.8750000000000000 0.1250000000000000
0.9727650000000000 0.6250000000000000 0.1250000000000000
0.9727650000000000 0.8750000000000000 0.3750000000000000
0.6250000000000000 0.8750000000000000 0.2772350000000000
0.8750000000000000 0.6250000000000000 0.2772350000000000
0.8750000000000000 0.8750000000000000 0.2227650000000000
0.6250000000000000 0.6250000000000000 0.2227650000000000
0.6250000000000000 0.7772350000000000 0.3750000000000000
0.8750000000000000 0.7772350000000000 0.1250000000000000
0.6250000000000000 0.7227650000000000 0.1250000000000000
0.8750000000000000 0.7227650000000000 0.3750000000000000
0.6250000000000000 0.8750000000000000 0.2227650000000000
0.8750000000000000 0.6250000000000000 0.2227650000000000
0.6250000000000000 0.6250000000000000 0.2772350000000000
0.8750000000000000 0.8750000000000000 0.2772350000000000
0.6250000000000000 0.7772350000000000 0.1250000000000000
0.8750000000000000 0.7772350000000000 0.3750000000000000
0.8750000000000000 0.7227650000000000 0.1250000000000000
0.6250000000000000 0.7227650000000000 0.3750000000000000
0.7772350000000000 0.6250000000000000 0.3750000000000000
0.7772350000000000 0.8750000000000000 0.1250000000000000
0.7227650000000000 0.8750000000000000 0.3750000000000000
0.7227650000000000 0.6250000000000000 0.1250000000000000
0.7772350000000000 0.6250000000000000 0.1250000000000000
0.7772350000000000 0.8750000000000000 0.3750000000000000
0.7227650000000000 0.6250000000000000 0.3750000000000000
0.7227650000000000 0.8750000000000000 0.1250000000000000
0.6250000000000000 0.6250000000000000 0.5272350000000000
0.8750000000000000 0.8750000000000000 0.5272350000000000
0.8749999999999999 0.6249999999999999 0.9727650000000000
0.6249999999999999 0.8749999999999999 0.9727650000000000
0.5272350000000001 0.6250000000000000 0.6250000000000000
0.5272350000000001 0.8750000000000000 0.8750000000000000
0.9727650000000000 0.8750000000000000 0.6250000000000000
0.9727650000000000 0.6250000000000000 0.8750000000000000
0.6250000000000000 0.5272350000000001 0.6250000000000000
0.8750000000000000 0.5272350000000001 0.8750000000000000
0.6249999999999999 0.9727650000000000 0.8750000000000000
0.8749999999999999 0.9727650000000000 0.6250000000000000
0.6249999999999999 0.6249999999999999 0.9727650000000000
0.8749999999999999 0.8749999999999999 0.9727650000000000
0.6250000000000000 0.8750000000000000 0.5272350000000000
0.8750000000000000 0.6250000000000000 0.5272350000000000
0.6250000000000000 0.5272350000000001 0.8750000000000000
0.8750000000000000 0.5272350000000001 0.6250000000000000
0.8749999999999999 0.9727650000000000 0.8750000000000000
0.6249999999999999 0.9727650000000000 0.6250000000000000
0.5272350000000001 0.6250000000000000 0.8750000000000000
0.5272350000000001 0.8750000000000000 0.6250000000000000
0.9727650000000000 0.6250000000000000 0.6250000000000000
0.9727650000000000 0.8750000000000000 0.8750000000000000
0.6250000000000000 0.8750000000000000 0.7772350000000000
0.8750000000000000 0.6250000000000000 0.7772350000000000
0.8750000000000000 0.8750000000000000 0.7227650000000000
0.6250000000000000 0.6250000000000000 0.7227650000000000
0.6250000000000000 0.7772350000000000 0.8750000000000000
0.8750000000000000 0.7772350000000000 0.6250000000000000
0.6250000000000000 0.7227650000000000 0.6250000000000000
0.8750000000000000 0.7227650000000000 0.8750000000000000
0.6250000000000000 0.8750000000000000 0.7227650000000000
0.8750000000000000 0.6250000000000000 0.7227650000000000
0.6250000000000000 0.6250000000000000 0.7772350000000000
0.8750000000000000 0.8750000000000000 0.7772350000000000
0.6250000000000000 0.7772350000000000 0.6250000000000000
0.8750000000000000 0.7772350000000000 0.8750000000000000
0.8750000000000000 0.7227650000000000 0.6250000000000000
0.6250000000000000 0.7227650000000000 0.8750000000000000
0.7772350000000000 0.6250000000000000 0.8750000000000000
0.7772350000000000 0.8750000000000000 0.6250000000000000
0.7227650000000000 0.8750000000000000 0.8750000000000000
0.7227650000000000 0.6250000000000000 0.6250000000000000
0.7772350000000000 0.6250000000000000 0.6250000000000000
0.7772350000000000 0.8750000000000000 0.8750000000000000
0.7227650000000000 0.6250000000000000 0.8750000000000000
0.7227650000000000 0.8750000000000000 0.6250000000000000
0.1267400000000000 0.1464350000000000 0.0132900000000000
0.3732600000000000 0.3535650000000000 0.0132900000000000
0.3732599999999999 0.1464350000000000 0.4867100000000000
0.1267400000000000 0.3535650000000000 0.4867100000000000
0.0132900000000000 0.1267400000000000 0.1464350000000000
0.0132900000000000 0.3732600000000000 0.3535650000000000
0.4867100000000000 0.3732600000000000 0.1464350000000000
0.4867100000000000 0.1267400000000000 0.3535650000000000
0.1464350000000000 0.0132900000000000 0.1267400000000000
0.3535650000000000 0.0132900000000000 0.3732600000000000
0.1464350000000000 0.4867100000000000 0.3732600000000000
0.3535650000000000 0.4867100000000000 0.1267400000000000
0.1267400000000000 0.3964350000000000 0.2632900000000000
0.3732600000000000 0.1035650000000000 0.2632900000000000
0.3732600000000000 0.3964350000000000 0.2367100000000000
0.1267400000000000 0.1035650000000000 0.2367100000000000
0.4867100000000000 0.1232600000000000 0.1035650000000000
0.4867100000000000 0.3767400000000000 0.3964350000000000
0.0132900000000000 0.3767400000000000 0.1035650000000000
0.0132900000000000 0.1232600000000000 0.3964350000000000
0.3535650000000000 0.2367100000000000 0.1232600000000000
0.1464350000000000 0.2367100000000000 0.3767400000000000
0.3535650000000000 0.2632900000000001 0.3767400000000000
0.1464350000000000 0.2632900000000000 0.1232600000000000
0.2632900000000001 0.1267400000000000 0.3964350000000000
0.2632900000000001 0.3732600000000000 0.1035650000000000
0.2367100000000000 0.3732600000000000 0.3964350000000000
0.2367100000000000 0.1267400000000000 0.1035650000000000
0.1232600000000000 0.3535650000000000 0.2367100000000000
0.3767400000000000 0.1464350000000000 0.2367100000000000
0.3767400000000000 0.3535650000000000 0.2632900000000000
0.1232600000000000 0.1464350000000000 0.2632900000000000
0.1035650000000000 0.4867100000000000 0.1232600000000000
0.3964349999999999 0.4867100000000000 0.3767400000000000
0.1035650000000000 0.0132900000000000 0.3767400000000000
0.3964350000000000 0.0132900000000000 0.1232600000000000
0.3964350000000000 0.2632900000000000 0.1267400000000000
0.1035650000000000 0.2632900000000001 0.3732600000000000
0.3964350000000000 0.2367100000000000 0.3732600000000000
0.1035650000000000 0.2367100000000000 0.1267400000000000
0.1232600000000000 0.1035650000000000 0.4867100000000000
0.3767400000000000 0.3964349999999999 0.4867100000000000
0.3767400000000000 0.1035650000000000 0.0132900000000000
0.1232600000000000 0.3964350000000000 0.0132900000000000
0.2367100000000000 0.1232600000000000 0.3535650000000000
0.2367100000000000 0.3767400000000000 0.1464350000000000
0.2632900000000001 0.3767400000000000 0.3535650000000000
0.2632900000000000 0.1232600000000000 0.1464350000000000
0.1267400000000000 0.1464350000000000 0.5132900000000000
0.3732599999999999 0.3535650000000000 0.5132900000000000
0.3732600000000000 0.1464350000000000 0.9867100000000000
0.1267400000000000 0.3535650000000000 0.9867100000000000
0.0132900000000000 0.1267400000000000 0.6464350000000001
0.0132900000000000 0.3732600000000000 0.8535650000000000
0.4867100000000000 0.3732600000000000 0.6464350000000001
0.4867100000000000 0.1267400000000000 0.8535650000000000
0.1464350000000000 0.0132900000000000 0.6267400000000000
0.3535650000000000 0.0132900000000000 0.8732599999999998
0.1464350000000000 0.4867100000000000 0.8732599999999998
0.3535650000000000 0.4867100000000000 0.6267400000000000
0.1267400000000000 0.3964350000000000 0.7632900000000000
0.3732600000000000 0.1035650000000000 0.7632900000000000
0.3732600000000000 0.3964350000000000 0.7367100000000000
0.1267400000000000 0.1035650000000000 0.7367100000000000
0.4867100000000000 0.1232600000000000 0.6035650000000000
0.4867100000000000 0.3767400000000000 0.8964350000000001
0.0132900000000000 0.3767400000000000 0.6035650000000000
0.0132900000000000 0.1232600000000000 0.8964350000000001
0.3535650000000000 0.2367100000000000 0.6232600000000000
0.1464350000000000 0.2367100000000000 0.8767400000000002
0.3535650000000000 0.2632900000000000 0.8767400000000002
0.1464350000000000 0.2632900000000000 0.6232600000000000
0.2632900000000000 0.1267400000000000 0.8964350000000001
0.2632900000000000 0.3732600000000000 0.6035650000000000
0.2367100000000000 0.3732600000000000 0.8964350000000001
0.2367100000000000 0.1267400000000000 0.6035650000000000
0.1232600000000000 0.3535650000000000 0.7367100000000000
0.3767400000000000 0.1464350000000000 0.7367100000000000
0.3767400000000000 0.3535650000000000 0.7632900000000000
0.1232600000000000 0.1464350000000000 0.7632900000000000
0.1035650000000000 0.4867100000000000 0.6232600000000000
0.3964349999999999 0.4867100000000000 0.8767400000000002
0.1035650000000000 0.0132900000000000 0.8767400000000002
0.3964350000000000 0.0132900000000000 0.6232600000000000
0.3964350000000000 0.2632900000000000 0.6267400000000000
0.1035650000000000 0.2632900000000000 0.8732599999999998
0.3964350000000000 0.2367100000000000 0.8732599999999998
0.1035650000000000 0.2367100000000000 0.6267400000000000
0.1232600000000000 0.1035650000000000 0.9867100000000000
0.3767400000000000 0.3964350000000000 0.9867100000000000
0.3767400000000000 0.1035650000000000 0.5132900000000000
0.1232600000000000 0.3964349999999999 0.5132900000000000
0.2367100000000000 0.1232600000000000 0.8535650000000000
0.2367100000000000 0.3767400000000000 0.6464350000000001
0.2632900000000001 0.3767400000000000 0.8535650000000000
0.2632900000000000 0.1232600000000000 0.6464350000000001
0.1267400000000000 0.6464350000000001 0.0132900000000000
0.3732600000000000 0.8535650000000000 0.0132900000000000
0.3732600000000000 0.6464350000000001 0.4867100000000000
0.1267400000000000 0.8535650000000000 0.4867100000000000
0.0132900000000000 0.6267400000000000 0.1464350000000000
0.0132900000000000 0.8732599999999998 0.3535650000000000
0.4867100000000000 0.8732599999999998 0.1464350000000000
0.4867100000000000 0.6267400000000000 0.3535650000000000
0.1464350000000000 0.5132900000000000 0.1267400000000000
0.3535650000000000 0.5132900000000000 0.3732600000000000
0.1464350000000000 0.9867100000000000 0.3732600000000000
0.3535650000000000 0.9867100000000000 0.1267400000000000
0.1267400000000000 0.8964350000000001 0.2632900000000000
0.3732600000000000 0.6035650000000000 0.2632900000000000
0.3732600000000000 0.8964350000000001 0.2367100000000000
0.1267400000000000 0.6035650000000000 0.2367100000000000
0.4867100000000000 0.6232600000000000 0.1035650000000000
0.4867100000000000 0.8767400000000002 0.3964350000000000
0.0132900000000000 0.8767400000000002 0.1035650000000000
0.0132900000000000 0.6232600000000000 0.3964350000000000
0.3535650000000000 0.7367100000000000 0.1232600000000000
0.1464350000000000 0.7367100000000000 0.3767400000000000
0.3535650000000000 0.7632900000000000 0.3767400000000000
0.1464350000000000 0.7632900000000000 0.1232600000000000
0.2632900000000000 0.6267400000000000 0.3964350000000000
0.2632900000000000 0.8732599999999998 0.1035650000000000
0.2367100000000000 0.8732599999999998 0.3964350000000000
0.2367100000000000 0.6267400000000000 0.1035650000000000
0.1232600000000000 0.8535650000000000 0.2367100000000000
0.3767400000000000 0.6464350000000001 0.2367100000000000
0.3767400000000000 0.8535650000000000 0.2632900000000000
0.1232600000000000 0.6464350000000001 0.2632900000000000
0.1035650000000000 0.9867100000000000 0.1232600000000000
0.3964350000000000 0.9867100000000000 0.3767400000000000
0.1035650000000000 0.5132900000000000 0.3767400000000000
0.3964349999999999 0.5132900000000000 0.1232600000000000
0.3964350000000000 0.7632900000000000 0.1267400000000000
0.1035650000000000 0.7632900000000000 0.3732600000000000
0.3964350000000000 0.7367100000000000 0.3732600000000000
0.1035650000000000 0.7367100000000000 0.1267400000000000
0.1232600000000000 0.6035650000000000 0.4867100000000000
0.3767400000000000 0.8964350000000001 0.4867100000000000
0.3767400000000000 0.6035650000000000 0.0132900000000000
0.1232600000000000 0.8964350000000001 0.0132900000000000
0.2367100000000000 0.6232600000000000 0.3535650000000000
0.2367100000000000 0.8767400000000002 0.1464350000000000
0.2632900000000001 0.8767400000000002 0.3535650000000000
0.2632900000000000 0.6232600000000000 0.1464350000000000
0.1267400000000000 0.6464350000000001 0.5132900000000000
0.3732600000000000 0.8535650000000000 0.5132900000000000
0.3732600000000000 0.6464350000000000 0.9867100000000000
0.1267400000000000 0.8535649999999999 0.9867100000000000
0.0132900000000000 0.6267400000000000 0.6464350000000001
0.0132900000000000 0.8732599999999998 0.8535650000000000
0.4867100000000000 0.8732599999999998 0.6464350000000001
0.4867100000000000 0.6267400000000000 0.8535650000000000
0.1464350000000000 0.5132900000000000 0.6267400000000000
0.3535650000000000 0.5132900000000000 0.8732599999999998
0.1464350000000000 0.9867100000000000 0.8732599999999998
0.3535650000000001 0.9867100000000000 0.6267400000000000
0.1267400000000000 0.8964350000000001 0.7632900000000000
0.3732600000000000 0.6035650000000001 0.7632900000000000
0.3732600000000000 0.8964350000000001 0.7367100000000000
0.1267400000000000 0.6035650000000001 0.7367100000000000
0.4867100000000000 0.6232600000000000 0.6035650000000000
0.4867100000000000 0.8767400000000002 0.8964350000000001
0.0132900000000000 0.8767400000000002 0.6035650000000000
0.0132900000000000 0.6232600000000000 0.8964350000000001
0.3535650000000001 0.7367100000000000 0.6232600000000000
0.1464350000000000 0.7367100000000000 0.8767400000000002
0.3535650000000001 0.7632900000000000 0.8767400000000002
0.1464350000000000 0.7632900000000000 0.6232600000000000
0.2632900000000000 0.6267400000000000 0.8964350000000001
0.2632900000000000 0.8732599999999998 0.6035650000000000
0.2367100000000000 0.8732599999999998 0.8964350000000001
0.2367100000000000 0.6267400000000000 0.6035650000000000
0.1232600000000000 0.8535650000000000 0.7367100000000000
0.3767400000000000 0.6464350000000001 0.7367100000000000
0.3767400000000000 0.8535650000000000 0.7632900000000000
0.1232600000000000 0.6464350000000001 0.7632900000000000
0.1035650000000000 0.9867100000000000 0.6232600000000000
0.3964350000000000 0.9867100000000000 0.8767400000000002
0.1035650000000000 0.5132900000000000 0.8767400000000002
0.3964349999999999 0.5132900000000000 0.6232600000000000
0.3964350000000000 0.7632900000000000 0.6267400000000000
0.1035650000000000 0.7632900000000000 0.8732599999999998
0.3964350000000000 0.7367100000000000 0.8732599999999998
0.1035650000000000 0.7367100000000000 0.6267400000000000
0.1232600000000000 0.6035650000000000 0.9867100000000000
0.3767400000000000 0.8964350000000000 0.9867100000000000
0.3767400000000000 0.6035650000000000 0.5132900000000000
0.1232600000000000 0.8964350000000001 0.5132900000000000
0.2367100000000000 0.6232600000000000 0.8535650000000000
0.2367100000000000 0.8767400000000002 0.6464350000000001
0.2632900000000001 0.8767400000000002 0.8535650000000000
0.2632900000000000 0.6232600000000000 0.6464350000000001
0.6267400000000000 0.1464350000000000 0.0132900000000000
0.8732599999999998 0.3535650000000000 0.0132900000000000
0.8732599999999998 0.1464350000000000 0.4867100000000000
0.6267400000000000 0.3535650000000000 0.4867100000000000
0.5132900000000000 0.1267400000000000 0.1464350000000000
0.5132900000000000 0.3732600000000000 0.3535650000000000
0.9867100000000000 0.3732600000000000 0.1464350000000000
0.9867100000000000 0.1267400000000000 0.3535650000000000
0.6464350000000001 0.0132900000000000 0.1267400000000000
0.8535650000000000 0.0132900000000000 0.3732600000000000
0.6464350000000001 0.4867100000000000 0.3732600000000000
0.8535650000000000 0.4867100000000000 0.1267400000000000
0.6267400000000000 0.3964350000000000 0.2632900000000000
0.8732599999999998 0.1035650000000000 0.2632900000000000
0.8732599999999998 0.3964350000000000 0.2367100000000000
0.6267400000000000 0.1035650000000000 0.2367100000000000
0.9867100000000000 0.1232600000000000 0.1035650000000000
0.9867100000000000 0.3767400000000000 0.3964350000000000
0.5132900000000000 0.3767400000000000 0.1035650000000000
0.5132900000000000 0.1232600000000000 0.3964350000000000
0.8535650000000000 0.2367100000000000 0.1232600000000000
0.6464350000000001 0.2367100000000000 0.3767400000000000
0.8535650000000000 0.2632900000000001 0.3767400000000000
0.6464350000000001 0.2632900000000000 0.1232600000000000
0.7632900000000000 0.1267400000000000 0.3964350000000000
0.7632900000000000 0.3732600000000000 0.1035650000000000
0.7367100000000000 0.3732600000000000 0.3964350000000000
0.7367100000000000 0.1267400000000000 0.1035650000000000
0.6232600000000000 0.3535650000000000 0.2367100000000000
0.8767400000000002 0.1464350000000000 0.2367100000000000
0.8767400000000002 0.3535650000000000 0.2632900000000000
0.6232600000000000 0.1464350000000000 0.2632900000000000
0.6035650000000000 0.4867100000000000 0.1232600000000000
0.8964350000000001 0.4867100000000000 0.3767400000000000
0.6035650000000000 0.0132900000000000 0.3767400000000000
0.8964350000000001 0.0132900000000000 0.1232600000000000
0.8964350000000001 0.2632900000000000 0.1267400000000000
0.6035650000000000 0.2632900000000001 0.3732600000000000
0.8964350000000001 0.2367100000000000 0.3732600000000000
0.6035650000000000 0.2367100000000000 0.1267400000000000
0.6232600000000000 0.1035650000000000 0.4867100000000000
0.8767400000000002 0.3964349999999999 0.4867100000000000
0.8767400000000002 0.1035650000000000 0.0132900000000000
0.6232600000000000 0.3964350000000000 0.0132900000000000
0.7367100000000000 0.1232600000000000 0.3535650000000000
0.7367100000000000 0.3767400000000000 0.1464350000000000
0.7632900000000000 0.3767400000000000 0.3535650000000000
0.7632900000000000 0.1232600000000000 0.1464350000000000
0.6267400000000000 0.1464350000000000 0.5132900000000000
0.8732599999999998 0.3535650000000000 0.5132900000000000
0.8732599999999997 0.1464350000000000 0.9867100000000000
0.6267399999999999 0.3535650000000000 0.9867100000000000
0.5132900000000000 0.1267400000000000 0.6464350000000001
0.5132900000000000 0.3732600000000000 0.8535650000000000
0.9867100000000000 0.3732600000000000 0.6464350000000001
0.9867100000000000 0.1267400000000000 0.8535650000000000
0.6464350000000001 0.0132900000000000 0.6267400000000000
0.8535650000000000 0.0132900000000000 0.8732599999999998
0.6464350000000001 0.4867100000000000 0.8732599999999998
0.8535650000000000 0.4867100000000000 0.6267400000000000
0.6267400000000000 0.3964350000000000 0.7632900000000000
0.8732599999999998 0.1035650000000000 0.7632900000000000
0.8732599999999998 0.3964350000000000 0.7367100000000000
0.6267400000000000 0.1035650000000000 0.7367100000000000
0.9867100000000000 0.1232600000000000 0.6035650000000000
0.9867100000000000 0.3767400000000000 0.8964350000000001
0.5132900000000000 0.3767400000000000 0.6035650000000000
0.5132900000000000 0.1232600000000000 0.8964350000000001
0.8535650000000000 0.2367100000000000 0.6232600000000000
0.6464350000000001 0.2367100000000000 0.8767400000000002
0.8535650000000000 0.2632900000000000 0.8767400000000002
0.6464350000000001 0.2632900000000000 0.6232600000000000
0.7632900000000000 0.1267400000000000 0.8964350000000001
0.7632900000000000 0.3732600000000000 0.6035650000000000
0.7367100000000000 0.3732600000000000 0.8964350000000001
0.7367100000000000 0.1267400000000000 0.6035650000000000
0.6232600000000000 0.3535650000000000 0.7367100000000000
0.8767400000000002 0.1464350000000000 0.7367100000000000
0.8767400000000002 0.3535650000000000 0.7632900000000000
0.6232600000000000 0.1464350000000000 0.7632900000000000
0.6035650000000001 0.4867100000000000 0.6232600000000000
0.8964350000000001 0.4867100000000000 0.8767400000000002
0.6035650000000001 0.0132900000000000 0.8767400000000002
0.8964350000000001 0.0132900000000000 0.6232600000000000
0.8964350000000001 0.2632900000000000 0.6267400000000000
0.6035650000000001 0.2632900000000000 0.8732599999999998
0.8964350000000001 0.2367100000000000 0.8732599999999998
0.6035650000000001 0.2367100000000000 0.6267400000000000
0.6232599999999999 0.1035650000000000 0.9867100000000000
0.8767400000000001 0.3964350000000000 0.9867100000000000
0.8767400000000002 0.1035650000000000 0.5132900000000000
0.6232600000000000 0.3964349999999999 0.5132900000000000
0.7367100000000000 0.1232600000000000 0.8535650000000000
0.7367100000000000 0.3767400000000000 0.6464350000000001
0.7632900000000000 0.3767400000000000 0.8535650000000000
0.7632900000000000 0.1232600000000000 0.6464350000000001
0.6267400000000000 0.6464350000000001 0.0132900000000000
0.8732599999999998 0.8535650000000000 0.0132900000000000
0.8732599999999998 0.6464350000000001 0.4867100000000000
0.6267400000000000 0.8535650000000000 0.4867100000000000
0.5132900000000000 0.6267400000000000 0.1464350000000000
0.5132900000000000 0.8732599999999998 0.3535650000000000
0.9867100000000000 0.8732599999999998 0.1464350000000000
0.9867100000000000 0.6267400000000000 0.3535650000000000
0.6464350000000001 0.5132900000000000 0.1267400000000000
0.8535650000000000 0.5132900000000000 0.3732600000000000
0.6464350000000000 0.9867100000000000 0.3732600000000000
0.8535649999999999 0.9867100000000000 0.1267400000000000
0.6267400000000000 0.8964350000000001 0.2632900000000000
0.8732599999999998 0.6035650000000000 0.2632900000000000
0.8732599999999998 0.8964350000000001 0.2367100000000000
0.6267400000000000 0.6035650000000000 0.2367100000000000
0.9867100000000000 0.6232600000000000 0.1035650000000000
0.9867100000000000 0.8767400000000002 0.3964350000000000
0.5132900000000000 0.8767400000000002 0.1035650000000000
0.5132900000000000 0.6232600000000000 0.3964350000000000
0.8535650000000000 0.7367100000000000 0.1232600000000000
0.6464350000000001 0.7367100000000000 0.3767400000000000
0.8535650000000000 0.7632900000000000 0.3767400000000000
0.6464350000000001 0.7632900000000000 0.1232600000000000
0.7632900000000000 0.6267400000000000 0.3964350000000000
0.7632900000000000 0.8732599999999998 0.1035650000000000
0.7367100000000000 0.8732599999999998 0.3964350000000000
0.7367100000000000 0.6267400000000000 0.1035650000000000
0.6232600000000000 0.8535650000000000 0.2367100000000000
0.8767400000000002 0.6464350000000001 0.2367100000000000
0.8767400000000002 0.8535650000000000 0.2632900000000000
0.6232600000000000 0.6464350000000001 0.2632900000000000
0.6035650000000000 0.9867100000000000 0.1232600000000000
0.8964350000000000 0.9867100000000000 0.3767400000000000
0.6035650000000000 0.5132900000000000 0.3767400000000000
0.8964350000000001 0.5132900000000000 0.1232600000000000
0.8964350000000001 0.7632900000000000 0.1267400000000000
0.6035650000000001 0.7632900000000000 0.3732600000000000
0.8964350000000001 0.7367100000000000 0.3732600000000000
0.6035650000000001 0.7367100000000000 0.1267400000000000
0.6232600000000000 0.6035650000000000 0.4867100000000000
0.8767400000000002 0.8964350000000001 0.4867100000000000
0.8767400000000002 0.6035650000000000 0.0132900000000000
0.6232600000000000 0.8964350000000001 0.0132900000000000
0.7367100000000000 0.6232600000000000 0.3535650000000000
0.7367100000000000 0.8767400000000002 0.1464350000000000
0.7632900000000000 0.8767400000000002 0.3535650000000000
0.7632900000000000 0.6232600000000000 0.1464350000000000
0.6267400000000000 0.6464350000000001 0.5132900000000000
0.8732599999999998 0.8535650000000000 0.5132900000000000
0.8732599999999997 0.6464350000000000 0.9867100000000000
0.6267399999999999 0.8535649999999999 0.9867100000000000
0.5132900000000001 0.6267400000000000 0.6464350000000001
0.5132900000000001 0.8732599999999998 0.8535650000000000
0.9867100000000000 0.8732599999999998 0.6464350000000001
0.9867100000000000 0.6267400000000000 0.8535650000000000
0.6464350000000001 0.5132900000000000 0.6267400000000000
0.8535650000000000 0.5132900000000000 0.8732599999999998
0.6464350000000000 0.9867100000000000 0.8732599999999998
0.8535649999999999 0.9867100000000000 0.6267400000000000
0.6267400000000000 0.8964350000000001 0.7632900000000000
0.8732599999999998 0.6035650000000001 0.7632900000000000
0.8732599999999998 0.8964350000000001 0.7367100000000000
0.6267400000000000 0.6035650000000001 0.7367100000000000
0.9867100000000000 0.6232600000000000 0.6035650000000000
0.9867100000000000 0.8767400000000002 0.8964350000000001
0.5132900000000001 0.8767400000000002 0.6035650000000000
0.5132900000000001 0.6232600000000000 0.8964350000000001
0.8535650000000000 0.7367100000000000 0.6232600000000000
0.6464350000000001 0.7367100000000000 0.8767400000000002
0.8535650000000000 0.7632900000000000 0.8767400000000002
0.6464350000000001 0.7632900000000000 0.6232600000000000
0.7632900000000000 0.6267400000000000 0.8964350000000001
0.7632900000000000 0.8732599999999998 0.6035650000000000
0.7367100000000000 0.8732599999999998 0.8964350000000001
0.7367100000000000 0.6267400000000000 0.6035650000000000
0.6232600000000000 0.8535650000000000 0.7367100000000000
0.8767400000000002 0.6464350000000001 0.7367100000000000
0.8767400000000002 0.8535650000000000 0.7632900000000000
0.6232600000000000 0.6464350000000001 0.7632900000000000
0.6035650000000000 0.9867100000000000 0.6232600000000000
0.8964350000000000 0.9867100000000000 0.8767400000000002
0.6035650000000001 0.5132900000000000 0.8767400000000002
0.8964350000000001 0.5132900000000000 0.6232600000000000
0.8964350000000001 0.7632900000000000 0.6267400000000000
0.6035650000000001 0.7632900000000000 0.8732599999999998
0.8964350000000001 0.7367100000000000 0.8732599999999998
0.6035650000000001 0.7367100000000000 0.6267400000000000
0.6232599999999999 0.6035650000000000 0.9867100000000000
0.8767400000000001 0.8964350000000000 0.9867100000000000
0.8767400000000002 0.6035650000000000 0.5132900000000000
0.6232600000000000 0.8964350000000001 0.5132900000000000
0.7367100000000000 0.6232600000000000 0.8535650000000000
0.7367100000000000 0.8767400000000002 0.6464350000000001
0.7632900000000000 0.8767400000000002 0.8535650000000000
0.7632900000000000 0.6232600000000000 0.6464350000000001
0.1998550000000000 0.1245900000000000 0.4797650000000000
0.3001450000000000 0.3754099999999999 0.4797650000000000
0.1998550000000000 0.3754100000000000 0.0202350000000000
0.3001450000000000 0.1245900000000000 0.0202350000000000
0.1245900000000000 0.0202350000000000 0.3001450000000000
0.3754100000000000 0.0202350000000000 0.1998550000000000
0.3754099999999999 0.4797650000000000 0.3001450000000000
0.1245900000000000 0.4797650000000000 0.1998550000000000
0.0202350000000000 0.1998550000000000 0.3754100000000000
0.0202350000000000 0.3001450000000000 0.1245900000000000
0.4797650000000000 0.1998550000000000 0.1245900000000000
0.4797650000000000 0.3001450000000001 0.3754100000000000
0.1245900000000000 0.2702350000000000 0.0501450000000000
0.3754100000000000 0.2702350000000000 0.4498550000000000
0.3754100000000000 0.2297650000000000 0.0501450000000000
0.1245900000000000 0.2297650000000000 0.4498550000000000
0.3001450000000000 0.1254100000000000 0.2702350000000000
0.1998550000000000 0.3745900000000000 0.2702350000000000
0.3001450000000001 0.3745900000000000 0.2297650000000000
0.1998550000000000 0.1254100000000000 0.2297650000000000
0.4797650000000000 0.0501450000000000 0.3745900000000000
0.4797650000000000 0.4498550000000000 0.1254100000000000
0.0202350000000000 0.0501450000000000 0.1254100000000000
0.0202350000000000 0.4498550000000000 0.3745900000000000
0.4498550000000000 0.1245900000000000 0.2297650000000000
0.0501450000000000 0.3754100000000000 0.2297650000000000
0.4498550000000000 0.3754100000000000 0.2702350000000000
0.0501450000000000 0.1245900000000000 0.2702350000000000
0.1254100000000000 0.4797650000000000 0.4498550000000000
0.3745900000000000 0.4797650000000000 0.0501450000000000
0.3745900000000000 0.0202350000000000 0.4498550000000000
0.1254100000000000 0.0202350000000000 0.0501450000000000
0.2297650000000000 0.3001450000000001 0.3745900000000000
0.2297650000000000 0.1998550000000000 0.1254100000000000
0.2702350000000000 0.3001450000000000 0.1254100000000000
0.2702350000000000 0.1998550000000000 0.3745900000000000
0.2702350000000001 0.4498550000000000 0.3754100000000000
0.2702350000000000 0.0501450000000000 0.1245900000000000
0.2297650000000000 0.4498550000000000 0.1245900000000000
0.2297650000000000 0.0501450000000000 0.3754100000000000
0.0501450000000000 0.1254100000000000 0.0202350000000000
0.4498550000000000 0.3745900000000000 0.0202350000000000
0.0501450000000000 0.3745900000000000 0.4797650000000000
0.4498549999999999 0.1254100000000000 0.4797650000000000
0.1254100000000000 0.2297650000000000 0.1998550000000000
0.3745900000000000 0.2297650000000000 0.3001450000000000
0.3745900000000000 0.2702350000000000 0.1998550000000000
0.1254100000000000 0.2702350000000000 0.3001450000000000
0.1998550000000000 0.1245900000000000 0.9797650000000000
0.3001450000000001 0.3754100000000000 0.9797650000000000
0.1998550000000000 0.3754099999999999 0.5202350000000000
0.3001450000000000 0.1245900000000000 0.5202350000000000
0.1245900000000000 0.0202350000000000 0.8001450000000001
0.3754100000000000 0.0202350000000000 0.6998549999999999
0.3754100000000000 0.4797650000000001 0.8001450000000001
0.1245900000000000 0.4797650000000001 0.6998549999999999
0.0202350000000000 0.1998550000000000 0.8754100000000000
0.0202350000000000 0.3001450000000000 0.6245900000000000
0.4797650000000001 0.1998550000000000 0.6245900000000000
0.4797650000000001 0.3001450000000000 0.8754100000000000
0.1245900000000000 0.2702349999999999 0.5501450000000000
0.3754100000000000 0.2702350000000000 0.9498549999999999
0.3754099999999999 0.2297650000000000 0.5501450000000000
0.1245900000000000 0.2297650000000000 0.9498549999999999
0.3001450000000000 0.1254100000000000 0.7702350000000001
0.1998550000000000 0.3745900000000000 0.7702350000000001
0.3001450000000000 0.3745900000000000 0.7297650000000000
0.1998550000000000 0.1254100000000000 0.7297650000000000
0.4797650000000001 0.0501450000000000 0.8745900000000000
0.4797650000000001 0.4498550000000000 0.6254100000000000
0.0202350000000000 0.0501450000000000 0.6254100000000000
0.0202350000000000 0.4498550000000000 0.8745900000000000
0.4498550000000000 0.1245900000000000 0.7297650000000000
0.0501450000000000 0.3754100000000000 0.7297650000000000
0.4498550000000000 0.3754100000000000 0.7702350000000001
0.0501450000000000 0.1245900000000000 0.7702350000000001
0.1254100000000000 0.4797650000000001 0.9498549999999999
0.3745899999999999 0.4797649999999999 0.5501450000000000
0.3745900000000000 0.0202350000000000 0.9498549999999999
0.1254100000000000 0.0202350000000000 0.5501450000000000
0.2297650000000000 0.3001450000000000 0.8745900000000000
0.2297650000000000 0.1998550000000000 0.6254100000000000
0.2702350000000000 0.3001450000000000 0.6254100000000000
0.2702350000000000 0.1998550000000000 0.8745900000000000
0.2702350000000001 0.4498550000000000 0.8754100000000000
0.2702349999999999 0.0501450000000000 0.6245900000000000
0.2297650000000000 0.4498550000000000 0.6245900000000000
0.2297650000000000 0.0501450000000000 0.8754100000000000
0.0501450000000000 0.1254100000000000 0.5202350000000000
0.4498549999999999 0.3745900000000000 0.5202350000000000
0.0501450000000000 0.3745900000000000 0.9797650000000000
0.4498550000000000 0.1254100000000000 0.9797650000000000
0.1254100000000000 0.2297650000000000 0.6998549999999999
0.3745900000000000 0.2297650000000000 0.8001450000000001
0.3745900000000000 0.2702349999999999 0.6998549999999999
0.1254100000000000 0.2702349999999999 0.8001450000000001
0.1998550000000000 0.6245900000000000 0.4797650000000000
0.3001450000000000 0.8754100000000000 0.4797650000000000
0.1998550000000000 0.8754100000000000 0.0202350000000000
0.3001450000000000 0.6245900000000000 0.0202350000000000
0.1245900000000000 0.5202350000000000 0.3001450000000000
0.3754099999999999 0.5202350000000000 0.1998550000000000
0.3754100000000000 0.9797650000000000 0.3001450000000000
0.1245900000000000 0.9797650000000000 0.1998550000000000
0.0202350000000000 0.6998549999999999 0.3754100000000000
0.0202350000000000 0.8001450000000001 0.1245900000000000
0.4797650000000001 0.6998549999999999 0.1245900000000000
0.4797650000000001 0.8001450000000001 0.3754100000000000
0.1245900000000000 0.7702350000000001 0.0501450000000000
0.3754100000000000 0.7702350000000001 0.4498550000000000
0.3754100000000000 0.7297650000000000 0.0501450000000000
0.1245900000000000 0.7297650000000000 0.4498550000000000
0.3001450000000000 0.6254100000000000 0.2702350000000000
0.1998550000000000 0.8745900000000000 0.2702350000000000
0.3001450000000000 0.8745900000000000 0.2297650000000000
0.1998550000000000 0.6254100000000000 0.2297650000000000
0.4797649999999999 0.5501450000000000 0.3745900000000000
0.4797650000000001 0.9498549999999999 0.1254100000000000
0.0202350000000000 0.5501450000000000 0.1254100000000000
0.0202350000000000 0.9498549999999999 0.3745900000000000
0.4498550000000000 0.6245900000000000 0.2297650000000000
0.0501450000000000 0.8754100000000000 0.2297650000000000
0.4498550000000000 0.8754100000000000 0.2702350000000000
0.0501450000000000 0.6245900000000000 0.2702350000000000
0.1254100000000000 0.9797650000000000 0.4498550000000000
0.3745900000000000 0.9797650000000000 0.0501450000000000
0.3745900000000000 0.5202350000000000 0.4498550000000000
0.1254100000000000 0.5202350000000000 0.0501450000000000
0.2297650000000000 0.8001450000000001 0.3745900000000000
0.2297650000000000 0.6998549999999999 0.1254100000000000
0.2702349999999999 0.8001450000000001 0.1254100000000000
0.2702350000000000 0.6998549999999999 0.3745900000000000
0.2702350000000001 0.9498549999999999 0.3754100000000000
0.2702349999999999 0.5501450000000000 0.1245900000000000
0.2297650000000000 0.9498549999999999 0.1245900000000000
0.2297650000000000 0.5501450000000000 0.3754100000000000
0.0501450000000000 0.6254100000000000 0.0202350000000000
0.4498550000000000 0.8745900000000000 0.0202350000000000
0.0501450000000000 0.8745900000000000 0.4797650000000000
0.4498549999999999 0.6254100000000000 0.4797650000000000
0.1254100000000000 0.7297650000000000 0.1998550000000000
0.3745900000000000 0.7297650000000000 0.3001450000000000
0.3745900000000000 0.7702350000000001 0.1998550000000000
0.1254100000000000 0.7702350000000001 0.3001450000000000
0.1998550000000000 0.6245899999999999 0.9797650000000000
0.3001450000000000 0.8754099999999999 0.9797650000000000
0.1998550000000000 0.8754100000000000 0.5202350000000000
0.3001449999999999 0.6245900000000000 0.5202350000000000
0.1245900000000000 0.5202350000000001 0.8001450000000001
0.3754100000000000 0.5202350000000001 0.6998549999999999
0.3754100000000000 0.9797650000000000 0.8001450000000001
0.1245900000000000 0.9797650000000000 0.6998549999999999
0.0202350000000000 0.6998549999999999 0.8754100000000000
0.0202350000000000 0.8001450000000001 0.6245900000000000
0.4797650000000001 0.6998549999999999 0.6245900000000000
0.4797650000000001 0.8001450000000001 0.8754100000000000
0.1245900000000000 0.7702350000000001 0.5501450000000000
0.3754100000000000 0.7702350000000000 0.9498549999999999
0.3754100000000000 0.7297650000000000 0.5501450000000000
0.1245900000000000 0.7297649999999999 0.9498549999999999
0.3001449999999999 0.6254100000000000 0.7702350000000001
0.1998550000000000 0.8745900000000000 0.7702350000000001
0.3001450000000000 0.8745900000000000 0.7297650000000000
0.1998550000000000 0.6254100000000000 0.7297650000000000
0.4797650000000000 0.5501450000000001 0.8745900000000000
0.4797650000000001 0.9498549999999999 0.6254100000000000
0.0202350000000000 0.5501450000000001 0.6254100000000000
0.0202350000000000 0.9498549999999999 0.8745900000000000
0.4498550000000001 0.6245900000000000 0.7297650000000000
0.0501450000000000 0.8754100000000000 0.7297650000000000
0.4498550000000001 0.8754100000000000 0.7702350000000001
0.0501450000000000 0.6245900000000000 0.7702350000000001
0.1254100000000000 0.9797649999999999 0.9498549999999999
0.3745900000000000 0.9797650000000000 0.5501450000000000
0.3745900000000000 0.5202350000000000 0.9498549999999999
0.1254100000000000 0.5202350000000000 0.5501450000000000
0.2297650000000000 0.8001450000000001 0.8745900000000000
0.2297650000000000 0.6998549999999999 0.6254100000000000
0.2702349999999999 0.8001450000000001 0.6254100000000000
0.2702350000000000 0.6998549999999999 0.8745900000000000
0.2702350000000000 0.9498549999999999 0.8754100000000000
0.2702349999999999 0.5501450000000001 0.6245900000000000
0.2297650000000000 0.9498549999999999 0.6245900000000000
0.2297650000000000 0.5501450000000001 0.8754100000000000
0.0501450000000000 0.6254100000000000 0.5202350000000000
0.4498549999999999 0.8745900000000000 0.5202350000000000
0.0501450000000000 0.8745899999999999 0.9797650000000000
0.4498550000000001 0.6254099999999999 0.9797650000000000
0.1254100000000000 0.7297650000000000 0.6998549999999999
0.3745900000000000 0.7297650000000000 0.8001450000000001
0.3745900000000000 0.7702350000000001 0.6998549999999999
0.1254100000000000 0.7702350000000001 0.8001450000000001
0.6998549999999999 0.1245900000000000 0.4797650000000000
0.8001450000000001 0.3754099999999999 0.4797650000000000
0.6998549999999999 0.3754100000000000 0.0202350000000000
0.8001450000000001 0.1245900000000000 0.0202350000000000
0.6245900000000000 0.0202350000000000 0.3001450000000000
0.8754100000000000 0.0202350000000000 0.1998550000000000
0.8754100000000000 0.4797650000000000 0.3001450000000000
0.6245900000000000 0.4797650000000000 0.1998550000000000
0.5202350000000000 0.1998550000000000 0.3754100000000000
0.5202350000000000 0.3001450000000000 0.1245900000000000
0.9797650000000000 0.1998550000000000 0.1245900000000000
0.9797650000000000 0.3001450000000001 0.3754100000000000
0.6245900000000000 0.2702350000000000 0.0501450000000000
0.8754100000000000 0.2702350000000000 0.4498550000000000
0.8754100000000000 0.2297650000000000 0.0501450000000000
0.6245900000000000 0.2297650000000000 0.4498550000000000
0.8001450000000001 0.1254100000000000 0.2702350000000000
0.6998549999999999 0.3745900000000000 0.2702350000000000
0.8001450000000001 0.3745900000000000 0.2297650000000000
0.6998549999999999 0.1254100000000000 0.2297650000000000
0.9797650000000000 0.0501450000000000 0.3745900000000000
0.9797650000000000 0.4498550000000000 0.1254100000000000
0.5202350000000000 0.0501450000000000 0.1254100000000000
0.5202350000000000 0.4498550000000000 0.3745900000000000
0.9498549999999999 0.1245900000000000 0.2297650000000000
0.5501450000000000 0.3754100000000000 0.2297650000000000
0.9498549999999999 0.3754100000000000 0.2702350000000000
0.5501450000000000 0.1245900000000000 0.2702350000000000
0.6254100000000000 0.4797650000000000 0.4498550000000000
0.8745900000000000 0.4797650000000000 0.0501450000000000
0.8745900000000000 0.0202350000000000 0.4498550000000000
0.6254100000000000 0.0202350000000000 0.0501450000000000
0.7297650000000000 0.3001450000000001 0.3745900000000000
0.7297650000000000 0.1998550000000000 0.1254100000000000
0.7702350000000001 0.3001450000000000 0.1254100000000000
0.7702350000000001 0.1998550000000000 0.3745900000000000
0.7702350000000001 0.4498550000000000 0.3754100000000000
0.7702350000000001 0.0501450000000000 0.1245900000000000
0.7297650000000000 0.4498550000000000 0.1245900000000000
0.7297650000000000 0.0501450000000000 0.3754100000000000
0.5501450000000000 0.1254100000000000 0.0202350000000000
0.9498549999999999 0.3745900000000000 0.0202350000000000
0.5501450000000000 0.3745900000000000 0.4797650000000000
0.9498549999999999 0.1254100000000000 0.4797650000000000
0.6254100000000000 0.2297650000000000 0.1998550000000000
0.8745900000000000 0.2297650000000000 0.3001450000000000
0.8745900000000000 0.2702350000000000 0.1998550000000000
0.6254100000000000 0.2702350000000000 0.3001450000000000
0.6998549999999998 0.1245900000000000 0.9797650000000000
0.8001450000000000 0.3754100000000000 0.9797650000000000
0.6998549999999999 0.3754099999999999 0.5202350000000000
0.8001450000000001 0.1245900000000000 0.5202350000000000
0.6245900000000000 0.0202350000000000 0.8001450000000001
0.8754100000000000 0.0202350000000000 0.6998549999999999
0.8754100000000000 0.4797650000000001 0.8001450000000001
0.6245900000000000 0.4797650000000001 0.6998549999999999
0.5202350000000001 0.1998550000000000 0.8754100000000000
0.5202350000000001 0.3001450000000000 0.6245900000000000
0.9797650000000000 0.1998550000000000 0.6245900000000000
0.9797650000000000 0.3001450000000000 0.8754100000000000
0.6245900000000000 0.2702349999999999 0.5501450000000000
0.8754099999999999 0.2702350000000000 0.9498549999999999
0.8754100000000000 0.2297650000000000 0.5501450000000000
0.6245899999999999 0.2297650000000000 0.9498549999999999
0.8001450000000001 0.1254100000000000 0.7702350000000001
0.6998549999999999 0.3745900000000000 0.7702350000000001
0.8001450000000001 0.3745900000000000 0.7297650000000000
0.6998549999999999 0.1254100000000000 0.7297650000000000
0.9797650000000000 0.0501450000000000 0.8745900000000000
0.9797650000000000 0.4498550000000000 0.6254100000000000
0.5202350000000001 0.0501450000000000 0.6254100000000000
0.5202350000000001 0.4498550000000000 0.8745900000000000
0.9498549999999999 0.1245900000000000 0.7297650000000000
0.5501450000000001 0.3754100000000000 0.7297650000000000
0.9498549999999999 0.3754100000000000 0.7702350000000001
0.5501450000000001 0.1245900000000000 0.7702350000000001
0.6254099999999999 0.4797650000000001 0.9498549999999999
0.8745900000000000 0.4797649999999999 0.5501450000000000
0.8745899999999999 0.0202350000000000 0.9498549999999999
0.6254100000000000 0.0202350000000000 0.5501450000000000
0.7297650000000000 0.3001450000000000 0.8745900000000000
0.7297650000000000 0.1998550000000000 0.6254100000000000
0.7702350000000001 0.3001450000000000 0.6254100000000000
0.7702350000000001 0.1998550000000000 0.8745900000000000
0.7702350000000001 0.4498550000000000 0.8754100000000000
0.7702350000000001 0.0501450000000000 0.6245900000000000
0.7297650000000000 0.4498550000000000 0.6245900000000000
0.7297650000000000 0.0501450000000000 0.8754100000000000
0.5501450000000000 0.1254100000000000 0.5202350000000000
0.9498549999999999 0.3745900000000000 0.5202350000000000
0.5501450000000000 0.3745900000000000 0.9797650000000000
0.9498549999999998 0.1254100000000000 0.9797650000000000
0.6254100000000000 0.2297650000000000 0.6998549999999999
0.8745900000000000 0.2297650000000000 0.8001450000000001
0.8745900000000000 0.2702349999999999 0.6998549999999999
0.6254100000000000 0.2702349999999999 0.8001450000000001
0.6998549999999999 0.6245900000000000 0.4797650000000000
0.8001450000000001 0.8754100000000000 0.4797650000000000
0.6998549999999999 0.8754100000000000 0.0202350000000000
0.8001450000000001 0.6245900000000000 0.0202350000000000
0.6245900000000000 0.5202350000000000 0.3001450000000000
0.8754100000000000 0.5202350000000000 0.1998550000000000
0.8754099999999999 0.9797650000000000 0.3001450000000000
0.6245899999999999 0.9797650000000000 0.1998550000000000
0.5202350000000001 0.6998549999999999 0.3754100000000000
0.5202350000000001 0.8001450000000001 0.1245900000000000
0.9797650000000000 0.6998549999999999 0.1245900000000000
0.9797650000000000 0.8001450000000001 0.3754100000000000
0.6245900000000000 0.7702350000000001 0.0501450000000000
0.8754100000000000 0.7702350000000001 0.4498550000000000
0.8754100000000000 0.7297650000000000 0.0501450000000000
0.6245900000000000 0.7297650000000000 0.4498550000000000
0.8001450000000001 0.6254100000000000 0.2702350000000000
0.6998549999999999 0.8745900000000000 0.2702350000000000
0.8001450000000001 0.8745900000000000 0.2297650000000000
0.6998549999999999 0.6254100000000000 0.2297650000000000
0.9797650000000000 0.5501450000000000 0.3745900000000000
0.9797649999999999 0.9498549999999999 0.1254100000000000
0.5202350000000000 0.5501450000000000 0.1254100000000000
0.5202350000000000 0.9498549999999999 0.3745900000000000
0.9498549999999999 0.6245900000000000 0.2297650000000000
0.5501450000000001 0.8754100000000000 0.2297650000000000
0.9498549999999999 0.8754100000000000 0.2702350000000000
0.5501450000000001 0.6245900000000000 0.2702350000000000
0.6254099999999999 0.9797650000000000 0.4498550000000000
0.8745899999999999 0.9797650000000000 0.0501450000000000
0.8745900000000000 0.5202350000000000 0.4498550000000000
0.6254100000000000 0.5202350000000000 0.0501450000000000
0.7297650000000000 0.8001450000000001 0.3745900000000000
0.7297650000000000 0.6998549999999999 0.1254100000000000
0.7702350000000001 0.8001450000000001 0.1254100000000000
0.7702350000000001 0.6998549999999999 0.3745900000000000
0.7702350000000000 0.9498549999999999 0.3754100000000000
0.7702350000000001 0.5501450000000000 0.1245900000000000
0.7297649999999999 0.9498549999999999 0.1245900000000000
0.7297650000000000 0.5501450000000000 0.3754100000000000
0.5501450000000001 0.6254100000000000 0.0202350000000000
0.9498549999999999 0.8745900000000000 0.0202350000000000
0.5501450000000001 0.8745900000000000 0.4797650000000000
0.9498549999999999 0.6254100000000000 0.4797650000000000
0.6254100000000000 0.7297650000000000 0.1998550000000000
0.8745900000000000 0.7297650000000000 0.3001450000000000
0.8745900000000000 0.7702350000000001 0.1998550000000000
0.6254100000000000 0.7702350000000001 0.3001450000000000
0.6998549999999998 0.6245899999999999 0.9797650000000000
0.8001450000000000 0.8754099999999999 0.9797650000000000
0.6998549999999999 0.8754100000000000 0.5202350000000000
0.8001450000000001 0.6245900000000000 0.5202350000000000
0.6245900000000000 0.5202350000000001 0.8001450000000001
0.8754100000000000 0.5202350000000001 0.6998549999999999
0.8754099999999999 0.9797650000000000 0.8001450000000001
0.6245899999999999 0.9797650000000000 0.6998549999999999
0.5202350000000001 0.6998549999999999 0.8754100000000000
0.5202350000000001 0.8001450000000001 0.6245900000000000
0.9797650000000000 0.6998549999999999 0.6245900000000000
0.9797650000000000 0.8001450000000001 0.8754100000000000
0.6245900000000000 0.7702350000000001 0.5501450000000000
0.8754099999999999 0.7702350000000000 0.9498549999999999
0.8754100000000000 0.7297650000000000 0.5501450000000000
0.6245899999999999 0.7297649999999999 0.9498549999999999
0.8001450000000001 0.6254100000000000 0.7702350000000001
0.6998549999999999 0.8745900000000000 0.7702350000000001
0.8001450000000001 0.8745900000000000 0.7297650000000000
0.6998549999999999 0.6254100000000000 0.7297650000000000
0.9797650000000000 0.5501450000000001 0.8745900000000000
0.9797649999999999 0.9498549999999999 0.6254100000000000
0.5202350000000001 0.5501450000000001 0.6254100000000000
0.5202350000000000 0.9498549999999999 0.8745900000000000
0.9498549999999999 0.6245900000000000 0.7297650000000000
0.5501450000000001 0.8754100000000000 0.7297650000000000
0.9498549999999999 0.8754100000000000 0.7702350000000001
0.5501450000000001 0.6245900000000000 0.7702350000000001
0.6254099999999998 0.9797649999999999 0.9498549999999999
0.8745899999999999 0.9797650000000000 0.5501450000000000
0.8745899999999999 0.5202350000000000 0.9498549999999999
0.6254100000000000 0.5202350000000000 0.5501450000000000
0.7297650000000000 0.8001450000000001 0.8745900000000000
0.7297650000000000 0.6998549999999999 0.6254100000000000
0.7702350000000001 0.8001450000000001 0.6254100000000000
0.7702350000000001 0.6998549999999999 0.8745900000000000
0.7702350000000000 0.9498549999999999 0.8754100000000000
0.7702350000000001 0.5501450000000001 0.6245900000000000
0.7297649999999999 0.9498549999999999 0.6245900000000000
0.7297650000000000 0.5501450000000001 0.8754100000000000
0.5501450000000001 0.6254100000000000 0.5202350000000000
0.9498549999999999 0.8745900000000000 0.5202350000000000
0.5501450000000000 0.8745899999999999 0.9797650000000000
0.9498549999999998 0.6254099999999999 0.9797650000000000
0.6254100000000000 0.7297650000000000 0.6998549999999999
0.8745900000000000 0.7297650000000000 0.8001450000000001
0.8745900000000000 0.7702350000000001 0.6998549999999999
0.6254100000000000 0.7702350000000001 0.8001450000000001
0.2132250000000000 0.1447950000000000 0.4632250000000000
0.2867750000000000 0.3552049999999999 0.4632250000000000
0.2132250000000000 0.3552050000000000 0.0367750000000000
0.2867750000000000 0.1447950000000000 0.0367750000000000
0.1447950000000000 0.0367750000000000 0.2867750000000000
0.3552050000000000 0.0367750000000000 0.2132250000000000
0.3552049999999999 0.4632250000000000 0.2867750000000000
0.1447950000000000 0.4632250000000000 0.2132250000000000
0.0367750000000000 0.2132250000000000 0.3552050000000000
0.0367750000000000 0.2867750000000000 0.1447950000000000
0.4632250000000000 0.2132250000000000 0.1447950000000000
0.4632250000000000 0.2867750000000000 0.3552050000000000
0.3552049999999999 0.2867749999999999 0.4632250000000000
0.1447950000000000 0.2132250000000000 0.4632250000000000
0.1447950000000000 0.2867750000000000 0.0367750000000000
0.3552050000000000 0.2132250000000000 0.0367750000000000
0.4632250000000000 0.3552050000000000 0.2867750000000000
0.4632250000000000 0.1447950000000000 0.2132250000000000
0.0367750000000000 0.1447950000000000 0.2867750000000000
0.0367750000000000 0.3552050000000000 0.2132250000000000
0.2867750000000000 0.4632250000000000 0.3552050000000000
0.2132250000000000 0.4632250000000000 0.1447950000000000
0.2867750000000000 0.0367750000000000 0.1447950000000000
0.2132250000000000 0.0367750000000000 0.3552050000000000
0.0367750000000000 0.3947950000000000 0.4632250000000000
0.0367750000000000 0.1052050000000000 0.0367750000000000
0.4632249999999999 0.1052050000000000 0.4632250000000000
0.4632250000000000 0.3947950000000000 0.0367750000000000
0.2132250000000000 0.2867750000000000 0.3947950000000000
0.2867750000000000 0.2867750000000000 0.1052050000000000
0.2132250000000000 0.2132250000000000 0.1052050000000000
0.2867750000000000 0.2132250000000000 0.3947950000000000
0.2867750000000000 0.1052050000000000 0.2867750000000000
0.2132250000000000 0.3947950000000000 0.2867750000000000
0.2867750000000000 0.3947950000000000 0.2132250000000000
0.2132250000000000 0.1052050000000000 0.2132250000000000
0.4632250000000000 0.0367750000000000 0.3947950000000000
0.4632249999999999 0.4632250000000000 0.1052050000000000
0.0367750000000000 0.0367750000000000 0.1052050000000000
0.0367750000000000 0.4632250000000000 0.3947950000000000
0.3947950000000000 0.2132250000000000 0.2867750000000000
0.1052050000000000 0.2867750000000000 0.2867750000000000
0.1052050000000000 0.2132250000000000 0.2132250000000000
0.3947950000000000 0.2867750000000000 0.2132250000000000
0.1052050000000000 0.4632249999999999 0.4632250000000000
0.3947950000000000 0.4632250000000000 0.0367750000000000
0.3947950000000000 0.0367750000000000 0.4632250000000000
0.1052050000000000 0.0367750000000000 0.0367750000000000
0.2132250000000000 0.1447950000000000 0.9632250000000000
0.2867750000000001 0.3552050000000000 0.9632250000000000
0.2132250000000000 0.3552049999999999 0.5367750000000000
0.2867749999999999 0.1447950000000000 0.5367750000000000
0.1447950000000000 0.0367750000000000 0.7867750000000001
0.3552050000000000 0.0367750000000000 0.7132250000000000
0.3552049999999999 0.4632250000000001 0.7867750000000001
0.1447950000000000 0.4632250000000001 0.7132250000000000
0.0367750000000000 0.2132250000000000 0.8552050000000001
0.0367750000000000 0.2867749999999999 0.6447949999999999
0.4632250000000001 0.2132250000000000 0.6447949999999999
0.4632250000000001 0.2867750000000000 0.8552050000000001
0.3552050000000000 0.2867750000000000 0.9632250000000000
0.1447950000000000 0.2132250000000000 0.9632250000000000
0.1447950000000000 0.2867749999999999 0.5367750000000000
0.3552049999999999 0.2132250000000000 0.5367750000000000
0.4632250000000001 0.3552050000000000 0.7867750000000001
0.4632250000000001 0.1447950000000000 0.7132250000000000
0.0367750000000000 0.1447950000000000 0.7867750000000001
0.0367750000000000 0.3552050000000000 0.7132250000000000
0.2867750000000000 0.4632250000000001 0.8552050000000001
0.2132250000000000 0.4632250000000001 0.6447949999999999
0.2867749999999999 0.0367750000000000 0.6447949999999999
0.2132250000000000 0.0367750000000000 0.8552050000000001
0.0367750000000000 0.3947950000000000 0.9632250000000000
0.0367750000000000 0.1052050000000000 0.5367750000000000
0.4632250000000001 0.1052050000000000 0.9632250000000000
0.4632249999999999 0.3947950000000000 0.5367750000000000
0.2132250000000000 0.2867750000000000 0.8947949999999999
0.2867750000000000 0.2867749999999999 0.6052050000000000
0.2132250000000000 0.2132250000000000 0.6052050000000000
0.2867750000000000 0.2132250000000000 0.8947949999999999
0.2867749999999999 0.1052050000000000 0.7867750000000001
0.2132250000000000 0.3947950000000000 0.7867750000000001
0.2867750000000000 0.3947950000000000 0.7132250000000000
0.2132250000000000 0.1052050000000000 0.7132250000000000
0.4632250000000001 0.0367750000000000 0.8947949999999999
0.4632250000000000 0.4632250000000001 0.6052050000000000
0.0367750000000000 0.0367750000000000 0.6052050000000000
0.0367750000000000 0.4632250000000001 0.8947949999999999
0.3947950000000000 0.2132250000000000 0.7867750000000001
0.1052050000000000 0.2867749999999999 0.7867750000000001
0.1052050000000000 0.2132250000000000 0.7132250000000000
0.3947950000000000 0.2867749999999999 0.7132250000000000
0.1052050000000000 0.4632250000000001 0.9632250000000000
0.3947949999999999 0.4632249999999999 0.5367750000000000
0.3947950000000000 0.0367750000000000 0.9632250000000000
0.1052050000000000 0.0367750000000000 0.5367750000000000
0.2132250000000000 0.6447949999999999 0.4632250000000000
0.2867750000000000 0.8552050000000001 0.4632250000000000
0.2132250000000000 0.8552050000000001 0.0367750000000000
0.2867749999999999 0.6447949999999999 0.0367750000000000
0.1447950000000000 0.5367750000000000 0.2867750000000000
0.3552049999999999 0.5367750000000000 0.2132250000000000
0.3552050000000000 0.9632250000000000 0.2867750000000000
0.1447950000000000 0.9632250000000000 0.2132250000000000
0.0367750000000000 0.7132250000000000 0.3552050000000000
0.0367750000000000 0.7867750000000001 0.1447950000000000
0.4632250000000001 0.7132250000000000 0.1447950000000000
0.4632250000000001 0.7867750000000001 0.3552050000000000
0.3552049999999999 0.7867750000000001 0.4632250000000000
0.1447950000000000 0.7132250000000000 0.4632250000000000
0.1447950000000000 0.7867750000000001 0.0367750000000000
0.3552050000000000 0.7132250000000000 0.0367750000000000
0.4632250000000001 0.8552050000000001 0.2867750000000000
0.4632250000000001 0.6447949999999999 0.2132250000000000
0.0367750000000000 0.6447949999999999 0.2867750000000000
0.0367750000000000 0.8552050000000001 0.2132250000000000
0.2867750000000001 0.9632250000000000 0.3552050000000000
0.2132250000000000 0.9632250000000000 0.1447950000000000
0.2867749999999999 0.5367750000000000 0.1447950000000000
0.2132250000000000 0.5367750000000000 0.3552050000000000
0.0367750000000000 0.8947949999999999 0.4632250000000000
0.0367750000000000 0.6052050000000000 0.0367750000000000
0.4632250000000000 0.6052050000000000 0.4632250000000000
0.4632250000000001 0.8947949999999999 0.0367750000000000
0.2132250000000000 0.7867750000000001 0.3947950000000000
0.2867749999999999 0.7867750000000001 0.1052050000000000
0.2132250000000000 0.7132250000000000 0.1052050000000000
0.2867750000000000 0.7132250000000000 0.3947950000000000
0.2867750000000000 0.6052050000000000 0.2867750000000000
0.2132250000000000 0.8947949999999999 0.2867750000000000
0.2867750000000000 0.8947949999999999 0.2132250000000000
0.2132250000000000 0.6052050000000000 0.2132250000000000
0.4632249999999999 0.5367750000000000 0.3947950000000000
0.4632250000000001 0.9632250000000000 0.1052050000000000
0.0367750000000000 0.5367750000000000 0.1052050000000000
0.0367750000000000 0.9632250000000000 0.3947950000000000
0.3947950000000000 0.7132250000000000 0.2867750000000000
0.1052050000000000 0.7867750000000001 0.2867750000000000
0.1052050000000000 0.7132250000000000 0.2132250000000000
0.3947950000000000 0.7867750000000001 0.2132250000000000
0.1052050000000000 0.9632250000000000 0.4632250000000000
0.3947950000000000 0.9632250000000000 0.0367750000000000
0.3947949999999999 0.5367750000000000 0.4632250000000000
0.1052050000000000 0.5367750000000000 0.0367750000000000
0.2132250000000000 0.6447949999999998 0.9632250000000000
0.2867750000000000 0.8552050000000000 0.9632250000000000
0.2132250000000000 0.8552050000000001 0.5367750000000000
0.2867749999999999 0.6447949999999999 0.5367750000000000
0.1447950000000000 0.5367750000000001 0.7867750000000001
0.3552049999999999 0.5367750000000001 0.7132250000000000
0.3552050000000000 0.9632250000000000 0.7867750000000001
0.1447950000000000 0.9632250000000000 0.7132250000000000
0.0367750000000000 0.7132250000000000 0.8552050000000001
0.0367750000000000 0.7867750000000001 0.6447949999999999
0.4632250000000001 0.7132250000000000 0.6447949999999999
0.4632250000000001 0.7867750000000001 0.8552050000000001
0.3552050000000000 0.7867750000000000 0.9632250000000000
0.1447950000000000 0.7132249999999999 0.9632250000000000
0.1447950000000000 0.7867750000000001 0.5367750000000000
0.3552049999999999 0.7132250000000000 0.5367750000000000
0.4632250000000001 0.8552050000000001 0.7867750000000001
0.4632250000000001 0.6447949999999999 0.7132250000000000
0.0367750000000000 0.6447949999999999 0.7867750000000001
0.0367750000000000 0.8552050000000001 0.7132250000000000
0.2867750000000000 0.9632250000000000 0.8552050000000001
0.2132250000000000 0.9632250000000000 0.6447949999999999
0.2867749999999999 0.5367750000000001 0.6447949999999999
0.2132250000000000 0.5367750000000001 0.8552050000000001
0.0367750000000000 0.8947949999999998 0.9632250000000000
0.0367750000000000 0.6052050000000000 0.5367750000000000
0.4632250000000001 0.6052050000000000 0.9632250000000000
0.4632250000000000 0.8947949999999999 0.5367750000000000
0.2132250000000000 0.7867750000000001 0.8947949999999999
0.2867749999999999 0.7867750000000001 0.6052050000000000
0.2132250000000000 0.7132250000000000 0.6052050000000000
0.2867750000000000 0.7132250000000000 0.8947949999999999
0.2867749999999999 0.6052050000000001 0.7867750000000001
0.2132250000000000 0.8947949999999999 0.7867750000000001
0.2867750000000000 0.8947949999999999 0.7132250000000000
0.2132250000000000 0.6052050000000001 0.7132250000000000
0.4632250000000000 0.5367750000000001 0.8947949999999999
0.4632250000000001 0.9632250000000000 0.6052050000000000
0.0367750000000000 0.5367750000000001 0.6052050000000000
0.0367750000000000 0.9632250000000000 0.8947949999999999
0.3947950000000001 0.7132250000000000 0.7867750000000001
0.1052050000000000 0.7867750000000001 0.7867750000000001
0.1052050000000000 0.7132250000000000 0.7132250000000000
0.3947950000000001 0.7867750000000001 0.7132250000000000
0.1052050000000000 0.9632249999999999 0.9632250000000000
0.3947950000000000 0.9632250000000000 0.5367750000000000
0.3947950000000000 0.5367750000000000 0.9632250000000000
0.1052050000000000 0.5367750000000000 0.5367750000000000
0.7132250000000000 0.1447950000000000 0.4632250000000000
0.7867750000000001 0.3552049999999999 0.4632250000000000
0.7132250000000000 0.3552050000000000 0.0367750000000000
0.7867750000000001 0.1447950000000000 0.0367750000000000
0.6447949999999999 0.0367750000000000 0.2867750000000000
0.8552050000000001 0.0367750000000000 0.2132250000000000
0.8552050000000001 0.4632250000000000 0.2867750000000000
0.6447949999999999 0.4632250000000000 0.2132250000000000
0.5367750000000000 0.2132250000000000 0.3552050000000000
0.5367750000000000 0.2867750000000000 0.1447950000000000
0.9632250000000000 0.2132250000000000 0.1447950000000000
0.9632250000000000 0.2867750000000000 0.3552050000000000
0.8552050000000001 0.2867749999999999 0.4632250000000000
0.6447949999999999 0.2132250000000000 0.4632250000000000
0.6447949999999999 0.2867750000000000 0.0367750000000000
0.8552050000000001 0.2132250000000000 0.0367750000000000
0.9632250000000000 0.3552050000000000 0.2867750000000000
0.9632250000000000 0.1447950000000000 0.2132250000000000
0.5367750000000000 0.1447950000000000 0.2867750000000000
0.5367750000000000 0.3552050000000000 0.2132250000000000
0.7867750000000001 0.4632250000000000 0.3552050000000000
0.7132250000000000 0.4632250000000000 0.1447950000000000
0.7867750000000001 0.0367750000000000 0.1447950000000000
0.7132250000000000 0.0367750000000000 0.3552050000000000
0.5367750000000000 0.3947950000000000 0.4632250000000000
0.5367750000000000 0.1052050000000000 0.0367750000000000
0.9632250000000000 0.1052050000000000 0.4632250000000000
0.9632250000000000 0.3947950000000000 0.0367750000000000
0.7132250000000000 0.2867750000000000 0.3947950000000000
0.7867750000000001 0.2867750000000000 0.1052050000000000
0.7132250000000000 0.2132250000000000 0.1052050000000000
0.7867750000000001 0.2132250000000000 0.3947950000000000
0.7867750000000001 0.1052050000000000 0.2867750000000000
0.7132250000000000 0.3947950000000000 0.2867750000000000
0.7867750000000001 0.3947950000000000 0.2132250000000000
0.7132250000000000 0.1052050000000000 0.2132250000000000
0.9632250000000000 0.0367750000000000 0.3947950000000000
0.9632250000000000 0.4632250000000000 0.1052050000000000
0.5367750000000000 0.0367750000000000 0.1052050000000000
0.5367750000000000 0.4632250000000000 0.3947950000000000
0.8947949999999999 0.2132250000000000 0.2867750000000000
0.6052050000000000 0.2867750000000000 0.2867750000000000
0.6052050000000000 0.2132250000000000 0.2132250000000000
0.8947949999999999 0.2867750000000000 0.2132250000000000
0.6052050000000000 0.4632249999999999 0.4632250000000000
0.8947949999999999 0.4632250000000000 0.0367750000000000
0.8947949999999999 0.0367750000000000 0.4632250000000000
0.6052050000000000 0.0367750000000000 0.0367750000000000
0.7132249999999999 0.1447950000000000 0.9632250000000000
0.7867750000000000 0.3552050000000000 0.9632250000000000
0.7132250000000000 0.3552049999999999 0.5367750000000000
0.7867750000000001 0.1447950000000000 0.5367750000000000
0.6447949999999999 0.0367750000000000 0.7867750000000001
0.8552050000000001 0.0367750000000000 0.7132250000000000
0.8552050000000001 0.4632250000000001 0.7867750000000001
0.6447949999999999 0.4632250000000001 0.7132250000000000
0.5367750000000001 0.2132250000000000 0.8552050000000001
0.5367750000000001 0.2867749999999999 0.6447949999999999
0.9632250000000000 0.2132250000000000 0.6447949999999999
0.9632250000000000 0.2867750000000000 0.8552050000000001
0.8552050000000000 0.2867750000000000 0.9632250000000000
0.6447949999999998 0.2132250000000000 0.9632250000000000
0.6447949999999999 0.2867749999999999 0.5367750000000000
0.8552050000000001 0.2132250000000000 0.5367750000000000
0.9632250000000000 0.3552050000000000 0.7867750000000001
0.9632250000000000 0.1447950000000000 0.7132250000000000
0.5367750000000001 0.1447950000000000 0.7867750000000001
0.5367750000000001 0.3552050000000000 0.7132250000000000
0.7867750000000001 0.4632250000000001 0.8552050000000001
0.7132250000000000 0.4632250000000001 0.6447949999999999
0.7867750000000001 0.0367750000000000 0.6447949999999999
0.7132250000000000 0.0367750000000000 0.8552050000000001
0.5367750000000000 0.3947950000000000 0.9632250000000000
0.5367750000000000 0.1052050000000000 0.5367750000000000
0.9632249999999999 0.1052050000000000 0.9632250000000000
0.9632250000000000 0.3947950000000000 0.5367750000000000
0.7132250000000000 0.2867750000000000 0.8947949999999999
0.7867750000000001 0.2867749999999999 0.6052050000000000
0.7132250000000000 0.2132250000000000 0.6052050000000000
0.7867750000000001 0.2132250000000000 0.8947949999999999
0.7867750000000001 0.1052050000000000 0.7867750000000001
0.7132250000000000 0.3947950000000000 0.7867750000000001
0.7867750000000001 0.3947950000000000 0.7132250000000000
0.7132250000000000 0.1052050000000000 0.7132250000000000
0.9632250000000000 0.0367750000000000 0.8947949999999999
0.9632250000000000 0.4632250000000001 0.6052050000000000
0.5367750000000001 0.0367750000000000 0.6052050000000000
0.5367750000000001 0.4632250000000001 0.8947949999999999
0.8947949999999999 0.2132250000000000 0.7867750000000001
0.6052050000000001 0.2867749999999999 0.7867750000000001
0.6052050000000001 0.2132250000000000 0.7132250000000000
0.8947949999999999 0.2867749999999999 0.7132250000000000
0.6052050000000000 0.4632250000000001 0.9632250000000000
0.8947949999999999 0.4632249999999999 0.5367750000000000
0.8947949999999998 0.0367750000000000 0.9632250000000000
0.6052050000000000 0.0367750000000000 0.5367750000000000
0.7132250000000000 0.6447949999999999 0.4632250000000000
0.7867750000000001 0.8552050000000001 0.4632250000000000
0.7132250000000000 0.8552050000000001 0.0367750000000000
0.7867750000000001 0.6447949999999999 0.0367750000000000
0.6447949999999999 0.5367750000000000 0.2867750000000000
0.8552050000000001 0.5367750000000000 0.2132250000000000
0.8552050000000000 0.9632250000000000 0.2867750000000000
0.6447949999999998 0.9632250000000000 0.2132250000000000
0.5367750000000001 0.7132250000000000 0.3552050000000000
0.5367750000000001 0.7867750000000001 0.1447950000000000
0.9632250000000000 0.7132250000000000 0.1447950000000000
0.9632250000000000 0.7867750000000001 0.3552050000000000
0.8552050000000001 0.7867750000000001 0.4632250000000000
0.6447949999999999 0.7132250000000000 0.4632250000000000
0.6447949999999999 0.7867750000000001 0.0367750000000000
0.8552050000000001 0.7132250000000000 0.0367750000000000
0.9632250000000000 0.8552050000000001 0.2867750000000000
0.9632250000000000 0.6447949999999999 0.2132250000000000
0.5367750000000001 0.6447949999999999 0.2867750000000000
0.5367750000000001 0.8552050000000001 0.2132250000000000
0.7867750000000000 0.9632250000000000 0.3552050000000000
0.7132249999999999 0.9632250000000000 0.1447950000000000
0.7867750000000001 0.5367750000000000 0.1447950000000000
0.7132250000000000 0.5367750000000000 0.3552050000000000
0.5367750000000001 0.8947949999999999 0.4632250000000000
0.5367750000000001 0.6052050000000000 0.0367750000000000
0.9632250000000000 0.6052050000000000 0.4632250000000000
0.9632250000000000 0.8947949999999999 0.0367750000000000
0.7132250000000000 0.7867750000000001 0.3947950000000000
0.7867750000000001 0.7867750000000001 0.1052050000000000
0.7132250000000000 0.7132250000000000 0.1052050000000000
0.7867750000000001 0.7132250000000000 0.3947950000000000
0.7867750000000001 0.6052050000000000 0.2867750000000000
0.7132250000000000 0.8947949999999999 0.2867750000000000
0.7867750000000001 0.8947949999999999 0.2132250000000000
0.7132250000000000 0.6052050000000000 0.2132250000000000
0.9632250000000000 0.5367750000000000 0.3947950000000000
0.9632249999999999 0.9632250000000000 0.1052050000000000
0.5367750000000000 0.5367750000000000 0.1052050000000000
0.5367750000000000 0.9632250000000000 0.3947950000000000
0.8947949999999999 0.7132250000000000 0.2867750000000000
0.6052050000000001 0.7867750000000001 0.2867750000000000
0.6052050000000001 0.7132250000000000 0.2132250000000000
0.8947949999999999 0.7867750000000001 0.2132250000000000
0.6052050000000000 0.9632250000000000 0.4632250000000000
0.8947949999999998 0.9632250000000000 0.0367750000000000
0.8947949999999999 0.5367750000000000 0.4632250000000000
0.6052050000000000 0.5367750000000000 0.0367750000000000
0.7132249999999999 0.6447949999999998 0.9632250000000000
0.7867750000000000 0.8552050000000000 0.9632250000000000
0.7132250000000000 0.8552050000000001 0.5367750000000000
0.7867750000000001 0.6447949999999999 0.5367750000000000
0.6447949999999999 0.5367750000000001 0.7867750000000001
0.8552050000000001 0.5367750000000001 0.7132250000000000
0.8552050000000000 0.9632250000000000 0.7867750000000001
0.6447949999999998 0.9632250000000000 0.7132250000000000
0.5367750000000001 0.7132250000000000 0.8552050000000001
0.5367750000000001 0.7867750000000001 0.6447949999999999
0.9632250000000000 0.7132250000000000 0.6447949999999999
0.9632250000000000 0.7867750000000001 0.8552050000000001
0.8552050000000000 0.7867750000000000 0.9632250000000000
0.6447949999999998 0.7132249999999999 0.9632250000000000
0.6447949999999999 0.7867750000000001 0.5367750000000000
0.8552050000000001 0.7132250000000000 0.5367750000000000
0.9632250000000000 0.8552050000000001 0.7867750000000001
0.9632250000000000 0.6447949999999999 0.7132250000000000
0.5367750000000001 0.6447949999999999 0.7867750000000001
0.5367750000000001 0.8552050000000001 0.7132250000000000
0.7867750000000000 0.9632250000000000 0.8552050000000001
0.7132249999999999 0.9632250000000000 0.6447949999999999
0.7867750000000001 0.5367750000000001 0.6447949999999999
0.7132250000000000 0.5367750000000001 0.8552050000000001
0.5367750000000000 0.8947949999999998 0.9632250000000000
0.5367750000000001 0.6052050000000000 0.5367750000000000
0.9632249999999999 0.6052050000000000 0.9632250000000000
0.9632250000000000 0.8947949999999999 0.5367750000000000
0.7132250000000000 0.7867750000000001 0.8947949999999999
0.7867750000000001 0.7867750000000001 0.6052050000000000
0.7132250000000000 0.7132250000000000 0.6052050000000000
0.7867750000000001 0.7132250000000000 0.8947949999999999
0.7867750000000001 0.6052050000000001 0.7867750000000001
0.7132250000000000 0.8947949999999999 0.7867750000000001
0.7867750000000001 0.8947949999999999 0.7132250000000000
0.7132250000000000 0.6052050000000001 0.7132250000000000
0.9632250000000000 0.5367750000000001 0.8947949999999999
0.9632249999999999 0.9632250000000000 0.6052050000000000
0.5367750000000001 0.5367750000000001 0.6052050000000000
0.5367750000000000 0.9632250000000000 0.8947949999999999
0.8947949999999999 0.7132250000000000 0.7867750000000001
0.6052050000000001 0.7867750000000001 0.7867750000000001
0.6052050000000001 0.7132250000000000 0.7132250000000000
0.8947949999999999 0.7867750000000001 0.7132250000000000
0.6052049999999999 0.9632249999999999 0.9632250000000000
0.8947949999999998 0.9632250000000000 0.5367750000000000
0.8947949999999998 0.5367750000000000 0.9632250000000000
0.6052050000000000 0.5367750000000000 0.5367750000000000
0.4746400000000001 0.1705750000000000 0.1297300000000000
0.2024500000000000 0.1285150000000000 0.4975249999999999
0.1818550000000000 0.1245800000000000 0.4760600000000000
0.2068800000000000 0.1080200000000000 0.4760600000000000
0.2975500000000000 0.3714850000000000 0.4975249999999999
0.3181450000000000 0.3754200000000000 0.4760600000000000
0.2931200000000000 0.3919799999999999 0.4760600000000000
0.3083300000000000 0.1377750000000000 0.2810950000000000
0.3127550000000000 0.1172750000000000 0.2596300000000000
0.2877300000000000 0.1338350000000000 0.2596300000000000
0.1916700000000000 0.3622250000000001 0.2810950000000000
0.1872450000000000 0.3827250000000000 0.2596300000000000
0.2122700000000000 0.3661650000000000 0.2596300000000000
0.2024500000000000 0.1214850000000000 0.2475250000000000
0.2068800000000000 0.1419800000000000 0.2260600000000000
0.1818550000000000 0.1254200000000000 0.2260600000000000
0.2975500000000000 0.3785150000000000 0.2475250000000000
0.2931200000000000 0.3580200000000000 0.2260600000000000
0.3181450000000000 0.3745800000000000 0.2260600000000000
0.4524500000000000 0.1285150000000000 0.2475250000000000
0.4318550000000000 0.1245800000000000 0.2260600000000000
0.4568800000000000 0.1080200000000000 0.2260600000000000
0.4416700000000000 0.3877750000000000 0.2810950000000000
0.4622700000000000 0.3838350000000000 0.2596300000000000
0.4372450000000000 0.3672750000000000 0.2596300000000000
0.4416700000000000 0.3622250000000001 0.0310950000000000
0.4372450000000000 0.3827250000000000 0.0096300000000000
0.4622700000000000 0.3661650000000000 0.0096300000000000
0.4524500000000000 0.1214850000000000 0.4975249999999999
0.4568800000000000 0.1419800000000000 0.4760600000000000
0.4318549999999999 0.1254200000000000 0.4760600000000000
0.0475500000000000 0.3785149999999999 0.4975249999999999
0.0431200000000000 0.3580199999999999 0.4760600000000000
0.0681450000000000 0.3745799999999999 0.4760600000000000
0.0583300000000000 0.1122250000000000 0.2810950000000000
0.0377300000000000 0.1161650000000000 0.2596300000000000
0.0627550000000000 0.1327250000000000 0.2596300000000000
0.0475500000000000 0.3714850000000000 0.2475250000000000
0.0681450000000000 0.3754200000000000 0.2260600000000000
0.0431200000000000 0.3919800000000000 0.2260600000000000
0.0583300000000000 0.1377750000000000 0.0310950000000000
0.0627550000000000 0.1172750000000000 0.0096300000000000
0.0377300000000000 0.1338350000000000 0.0096300000000000
0.1916700000000000 0.3877750000000000 0.0310950000000000
0.2122700000000000 0.3838350000000000 0.0096300000000000
0.1872450000000000 0.3672750000000000 0.0096300000000000
0.3083300000000000 0.1122250000000000 0.0310950000000000
0.2877300000000000 0.1161650000000000 0.0096300000000000
0.3127550000000000 0.1327250000000000 0.0096300000000000
0.1377750000000000 0.0310950000000000 0.0583300000000000
0.1172750000000000 0.0096300000000000 0.0627550000000000
0.1338350000000000 0.0096300000000000 0.0377300000000000
0.3714850000000000 0.2475250000000000 0.0475500000000000
0.3754200000000000 0.2260600000000000 0.0681450000000000
0.3919800000000000 0.2260600000000000 0.0431200000000000
0.1122250000000000 0.2810950000000000 0.0583300000000000
0.1161650000000000 0.2596300000000000 0.0377300000000000
0.1327250000000000 0.2596300000000000 0.0627550000000000
0.3785149999999999 0.4975249999999999 0.0475500000000000
0.3580199999999999 0.4760600000000000 0.0431200000000000
0.3745799999999999 0.4760600000000000 0.0681450000000000
0.1285150000000000 0.4975249999999999 0.2024500000000000
0.1245800000000000 0.4760600000000000 0.1818550000000000
0.1080200000000000 0.4760600000000000 0.2068800000000000
0.3714850000000000 0.4975249999999999 0.2975500000000000
0.3754200000000000 0.4760600000000000 0.3181450000000000
0.3919799999999999 0.4760600000000000 0.2931200000000000
0.1214850000000000 0.4975249999999999 0.4524500000000000
0.1419800000000000 0.4760599999999999 0.4568800000000000
0.1254200000000000 0.4760600000000000 0.4318550000000000
0.3877750000000000 0.2810950000000000 0.4416700000000000
0.3838349999999999 0.2596300000000000 0.4622700000000000
0.3672750000000000 0.2596300000000001 0.4372450000000000
0.1285150000000000 0.2475250000000000 0.4524500000000000
0.1245800000000000 0.2260600000000000 0.4318550000000000
0.1080200000000000 0.2260600000000000 0.4568800000000000
0.1377750000000000 0.2810950000000000 0.3083300000000000
0.1172750000000000 0.2596300000000001 0.3127550000000000
0.1338350000000000 0.2596300000000001 0.2877300000000000
0.3622250000000001 0.2810950000000000 0.1916700000000000
0.3827250000000000 0.2596300000000000 0.1872450000000000
0.3661650000000000 0.2596300000000000 0.2122700000000000
0.1214850000000000 0.2475250000000000 0.2024500000000000
0.1419800000000000 0.2260600000000000 0.2068800000000000
0.1254200000000000 0.2260600000000000 0.1818550000000000
0.3785150000000000 0.2475250000000000 0.2975500000000000
0.3580200000000000 0.2260600000000000 0.2931200000000000
0.3745800000000000 0.2260600000000000 0.3181450000000000
0.1122250000000000 0.0310950000000000 0.3083300000000000
0.1161650000000000 0.0096300000000000 0.2877300000000000
0.1327250000000000 0.0096300000000000 0.3127550000000000
0.3877750000000000 0.0310950000000000 0.1916700000000000
0.3838350000000000 0.0096300000000000 0.2122700000000000
0.3672750000000000 0.0096300000000000 0.1872450000000000
0.2282150000000000 0.0683600000000000 0.3735150000000000
0.2241050000000000 0.0452300000000000 0.3921850000000000
0.2473250000000000 0.0452300000000000 0.3731800000000000
0.0217850000000000 0.0683600000000000 0.1235150000000000
0.0026750000000000 0.0452300000000000 0.1231800000000000
0.0258950000000000 0.0452300000000000 0.1421850000000000
0.0117800000000000 0.2124800000000000 0.3857400000000000
0.0076750000000000 0.1893500000000000 0.3670700000000000
0.0308950000000000 0.1893500000000000 0.3860750000000000
0.0217850000000000 0.3183599999999999 0.1264850000000000
0.0258950000000000 0.2952300000000000 0.1078150000000000
0.0026750000000000 0.2952300000000000 0.1268200000000000
0.0117800000000000 0.4624800000000001 0.3642600000000000
0.0308950000000000 0.4393500000000000 0.3639250000000000
0.0076750000000000 0.4393500000000000 0.3829300000000000
0.2382200000000000 0.4624800000000001 0.1142600000000000
0.2423250000000000 0.4393500000000000 0.1329300000000000
0.2191050000000000 0.4393500000000000 0.1139250000000000
0.2617800000000001 0.4624800000000001 0.3857400000000000
0.2576750000000000 0.4393500000000000 0.3670700000000000
0.2808950000000001 0.4393500000000000 0.3860750000000000
0.4882199999999999 0.4624800000000001 0.1357400000000000
0.4691050000000000 0.4393500000000000 0.1360750000000000
0.4923250000000000 0.4393500000000000 0.1170700000000000
0.4782150000000000 0.3183599999999999 0.3735150000000000
0.4741050000000000 0.2952300000000000 0.3921850000000000
0.4973250000000000 0.2952300000000000 0.3731800000000000
0.4976700000000000 0.2034000000000000 0.1267000000000000
0.4742450000000000 0.2044750000000000 0.1076850000000000
0.4782150000000000 0.0683600000000000 0.3764850000000000
0.4973250000000000 0.0452300000000000 0.3768200000000000
0.4741050000000000 0.0452300000000000 0.3578150000000000
0.2717850000000000 0.0683600000000000 0.1264850000000000
0.2758950000000000 0.0452300000000000 0.1078150000000000
0.2526750000000000 0.0452300000000000 0.1268200000000000
0.2617800000000001 0.2124800000000000 0.3642600000000000
0.2808950000000001 0.1893500000000000 0.3639250000000000
0.2576750000000000 0.1893500000000000 0.3829300000000000
0.2717850000000001 0.3183599999999999 0.1235150000000000
0.2526750000000000 0.2952300000000000 0.1231800000000000
0.2758950000000001 0.2952300000000000 0.1421850000000000
0.2282150000000000 0.3183599999999999 0.3764850000000000
0.2473250000000000 0.2952300000000000 0.3768200000000000
0.2241050000000000 0.2952300000000000 0.3578150000000000
0.2382200000000000 0.2124800000000000 0.1357400000000000
0.2191050000000000 0.1893500000000000 0.1360750000000000
0.2423250000000000 0.1893500000000000 0.1170700000000000
0.3622250000000001 0.0310950000000000 0.4416700000000000
0.3827250000000000 0.0096300000000000 0.4372450000000000
0.3661650000000000 0.0096300000000000 0.4622700000000000
0.4746400000000001 0.1705750000000000 0.6297299999999999
0.2024500000000000 0.1285150000000000 0.9975250000000000
0.1818550000000000 0.1245800000000000 0.9760599999999999
0.2068800000000000 0.1080200000000000 0.9760599999999999
0.2975500000000000 0.3714850000000000 0.9975250000000000
0.3181450000000001 0.3754200000000000 0.9760599999999999
0.2931200000000000 0.3919800000000000 0.9760599999999999
0.3083300000000000 0.1377750000000000 0.7810950000000000
0.3127550000000000 0.1172750000000000 0.7596300000000000
0.2877299999999999 0.1338350000000000 0.7596300000000000
0.1916700000000000 0.3622250000000001 0.7810950000000000
0.1872450000000000 0.3827250000000000 0.7596300000000000
0.2122700000000000 0.3661650000000000 0.7596300000000000
0.2024500000000000 0.1214850000000000 0.7475250000000000
0.2068800000000000 0.1419800000000000 0.7260600000000000
0.1818550000000000 0.1254200000000000 0.7260600000000000
0.2975500000000000 0.3785150000000000 0.7475250000000000
0.2931200000000000 0.3580200000000001 0.7260600000000000
0.3181450000000001 0.3745800000000000 0.7260600000000000
0.4524500000000000 0.1285150000000000 0.7475250000000000
0.4318550000000000 0.1245800000000000 0.7260600000000000
0.4568800000000000 0.1080200000000000 0.7260600000000000
0.4416700000000001 0.3877750000000000 0.7810950000000000
0.4622700000000000 0.3838350000000000 0.7596300000000000
0.4372450000000001 0.3672750000000001 0.7596300000000000
0.4416700000000000 0.3622250000000000 0.5310950000000000
0.4372449999999999 0.3827249999999999 0.5096300000000000
0.4622700000000000 0.3661650000000000 0.5096300000000000
0.4524500000000000 0.1214850000000000 0.9975250000000000
0.4568800000000000 0.1419800000000000 0.9760599999999999
0.4318550000000000 0.1254200000000000 0.9760599999999999
0.0475500000000000 0.3785150000000000 0.9975250000000000
0.0431200000000000 0.3580200000000001 0.9760599999999999
0.0681450000000000 0.3745800000000000 0.9760599999999999
0.0583300000000000 0.1122250000000000 0.7810950000000000
0.0377300000000000 0.1161650000000000 0.7596300000000000
0.0627550000000000 0.1327250000000000 0.7596300000000000
0.0475500000000000 0.3714850000000000 0.7475250000000000
0.0681450000000000 0.3754200000000000 0.7260600000000000
0.0431200000000000 0.3919800000000000 0.7260600000000000
0.0583300000000000 0.1377750000000000 0.5310950000000000
0.0627550000000000 0.1172750000000000 0.5096300000000000
0.0377300000000000 0.1338350000000000 0.5096300000000000
0.1916700000000000 0.3877749999999999 0.5310950000000000
0.2122700000000000 0.3838349999999999 0.5096300000000000
0.1872450000000000 0.3672750000000000 0.5096300000000000
0.3083300000000000 0.1122250000000000 0.5310950000000000
0.2877299999999999 0.1161650000000000 0.5096300000000000
0.3127549999999999 0.1327250000000000 0.5096300000000000
0.1377750000000000 0.0310950000000000 0.5583300000000000
0.1172750000000000 0.0096300000000000 0.5627550000000000
0.1338350000000000 0.0096300000000000 0.5377300000000000
0.3714850000000000 0.2475250000000000 0.5475500000000000
0.3754200000000000 0.2260600000000000 0.5681450000000000
0.3919799999999999 0.2260600000000000 0.5431200000000000
0.1122250000000000 0.2810950000000000 0.5583300000000000
0.1161650000000000 0.2596300000000000 0.5377300000000000
0.1327250000000000 0.2596300000000000 0.5627550000000000
0.3785149999999999 0.4975249999999999 0.5475500000000000
0.3580199999999999 0.4760599999999999 0.5431200000000000
0.3745800000000000 0.4760600000000000 0.5681450000000000
0.1285150000000000 0.4975250000000000 0.7024500000000000
0.1245800000000000 0.4760600000000000 0.6818550000000000
0.1080200000000000 0.4760600000000000 0.7068800000000001
0.3714850000000000 0.4975250000000000 0.7975500000000000
0.3754200000000000 0.4760600000000000 0.8181450000000000
0.3919799999999999 0.4760600000000000 0.7931200000000000
0.1214850000000000 0.4975250000000000 0.9524500000000000
0.1419800000000000 0.4760600000000000 0.9568800000000001
0.1254200000000000 0.4760600000000000 0.9318550000000000
0.3877750000000000 0.2810950000000000 0.9416700000000000
0.3838350000000000 0.2596300000000000 0.9622700000000000
0.3672750000000001 0.2596300000000000 0.9372450000000000
0.1285150000000000 0.2475250000000000 0.9524500000000000
0.1245800000000000 0.2260600000000000 0.9318550000000000
0.1080200000000000 0.2260600000000000 0.9568800000000001
0.1377750000000000 0.2810950000000000 0.8083300000000000
0.1172750000000000 0.2596300000000000 0.8127550000000000
0.1338350000000000 0.2596300000000000 0.7877300000000000
0.3622250000000001 0.2810950000000000 0.6916700000000000
0.3827250000000000 0.2596300000000000 0.6872450000000000
0.3661650000000000 0.2596300000000000 0.7122700000000000
0.1214850000000000 0.2475250000000000 0.7024500000000000
0.1419800000000000 0.2260600000000000 0.7068800000000001
0.1254200000000000 0.2260600000000000 0.6818550000000000
0.3785150000000000 0.2475250000000000 0.7975500000000000
0.3580200000000001 0.2260600000000000 0.7931200000000000
0.3745800000000000 0.2260600000000000 0.8181450000000000
0.1122250000000000 0.0310950000000000 0.8083300000000000
0.1161650000000000 0.0096300000000000 0.7877300000000000
0.1327250000000000 0.0096300000000000 0.8127550000000000
0.3877750000000000 0.0310950000000000 0.6916700000000000
0.3838350000000000 0.0096300000000000 0.7122700000000000
0.3672750000000001 0.0096300000000000 0.6872450000000000
0.2282150000000000 0.0683600000000000 0.8735149999999999
0.2241050000000000 0.0452300000000000 0.8921850000000000
0.2473250000000000 0.0452300000000000 0.8731800000000002
0.0217850000000000 0.0683600000000000 0.6235149999999999
0.0026750000000000 0.0452300000000000 0.6231800000000000
0.0258950000000000 0.0452300000000000 0.6421850000000000
0.0117800000000000 0.2124800000000000 0.8857400000000001
0.0076750000000000 0.1893500000000000 0.8670700000000000
0.0308950000000000 0.1893500000000000 0.8860749999999998
0.0217850000000000 0.3183600000000000 0.6264850000000001
0.0258950000000000 0.2952299999999999 0.6078150000000000
0.0026750000000000 0.2952299999999999 0.6268199999999999
0.0117800000000000 0.4624800000000001 0.8642600000000000
0.0308950000000000 0.4393500000000000 0.8639250000000002
0.0076750000000000 0.4393500000000000 0.8829300000000000
0.2382200000000000 0.4624800000000001 0.6142600000000000
0.2423250000000000 0.4393500000000000 0.6329300000000000
0.2191050000000000 0.4393500000000000 0.6139250000000001
0.2617800000000000 0.4624800000000001 0.8857400000000001
0.2576750000000000 0.4393500000000000 0.8670700000000000
0.2808950000000001 0.4393500000000000 0.8860749999999998
0.4882200000000000 0.4624800000000001 0.6357400000000001
0.4691050000000000 0.4393500000000000 0.6360749999999998
0.4923250000000000 0.4393500000000000 0.6170700000000000
0.4782150000000000 0.3183600000000000 0.8735149999999999
0.4741050000000001 0.2952300000000000 0.8921850000000000
0.4973250000000000 0.2952300000000000 0.8731800000000002
0.4976700000000001 0.2034000000000000 0.6267000000000000
0.4742450000000000 0.2044750000000000 0.6076850000000000
0.4782150000000000 0.0683600000000000 0.8764850000000001
0.4973250000000000 0.0452300000000000 0.8768199999999999
0.4741050000000001 0.0452300000000000 0.8578150000000000
0.2717850000000000 0.0683600000000000 0.6264850000000001
0.2758950000000000 0.0452300000000000 0.6078150000000000
0.2526750000000000 0.0452300000000000 0.6268199999999999
0.2617800000000001 0.2124800000000000 0.8642600000000000
0.2808950000000000 0.1893500000000000 0.8639250000000002
0.2576750000000000 0.1893500000000000 0.8829300000000000
0.2717850000000000 0.3183600000000000 0.6235149999999999
0.2526750000000000 0.2952299999999999 0.6231800000000000
0.2758950000000000 0.2952299999999999 0.6421850000000000
0.2282150000000000 0.3183600000000000 0.8764850000000001
0.2473250000000000 0.2952300000000000 0.8768199999999999
0.2241050000000000 0.2952300000000000 0.8578150000000000
0.2382200000000000 0.2124800000000000 0.6357400000000001
0.2191050000000000 0.1893500000000000 0.6360749999999998
0.2423250000000000 0.1893500000000000 0.6170700000000000
0.3622250000000001 0.0310950000000000 0.9416700000000000
0.3827250000000000 0.0096300000000000 0.9372450000000000
0.3661650000000000 0.0096300000000000 0.9622700000000000
0.4746400000000001 0.6705750000000000 0.1297300000000000
0.2024500000000000 0.6285149999999998 0.4975249999999999
0.1818550000000000 0.6245800000000000 0.4760600000000000
0.2068800000000000 0.6080200000000000 0.4760600000000000
0.2975500000000000 0.8714850000000002 0.4975249999999999
0.3181450000000000 0.8754200000000000 0.4760600000000000
0.2931200000000000 0.8919800000000000 0.4760600000000000
0.3083300000000000 0.6377750000000000 0.2810950000000000
0.3127550000000000 0.6172750000000000 0.2596300000000000
0.2877299999999999 0.6338350000000000 0.2596300000000000
0.1916700000000000 0.8622250000000000 0.2810950000000000
0.1872450000000000 0.8827250000000000 0.2596300000000000
0.2122700000000000 0.8661650000000001 0.2596300000000000
0.2024500000000000 0.6214850000000000 0.2475250000000000
0.2068800000000000 0.6419800000000000 0.2260600000000000
0.1818550000000000 0.6254200000000000 0.2260600000000000
0.2975500000000000 0.8785149999999998 0.2475250000000000
0.2931200000000000 0.8580200000000000 0.2260600000000000
0.3181450000000001 0.8745800000000000 0.2260600000000000
0.4524500000000000 0.6285149999999998 0.2475250000000000
0.4318550000000000 0.6245800000000000 0.2260600000000000
0.4568800000000000 0.6080200000000000 0.2260600000000000
0.4416700000000001 0.8877750000000000 0.2810950000000000
0.4622700000000000 0.8838349999999999 0.2596300000000000
0.4372450000000001 0.8672750000000000 0.2596300000000000
0.4416700000000001 0.8622250000000000 0.0310950000000000
0.4372450000000001 0.8827250000000000 0.0096300000000000
0.4622700000000000 0.8661650000000001 0.0096300000000000
0.4524500000000000 0.6214850000000000 0.4975249999999999
0.4568800000000000 0.6419800000000000 0.4760600000000000
0.4318549999999999 0.6254200000000000 0.4760600000000000
0.0475500000000000 0.8785149999999998 0.4975249999999999
0.0431200000000000 0.8580200000000000 0.4760600000000000
0.0681450000000000 0.8745800000000000 0.4760600000000000
0.0583300000000000 0.6122250000000000 0.2810950000000000
0.0377300000000000 0.6161650000000000 0.2596300000000000
0.0627550000000000 0.6327250000000000 0.2596300000000000
0.0475500000000000 0.8714850000000002 0.2475250000000000
0.0681450000000000 0.8754200000000000 0.2260600000000000
0.0431200000000000 0.8919800000000000 0.2260600000000000
0.0583300000000000 0.6377750000000000 0.0310950000000000
0.0627550000000000 0.6172750000000000 0.0096300000000000
0.0377300000000000 0.6338350000000000 0.0096300000000000
0.1916700000000000 0.8877750000000000 0.0310950000000000
0.2122700000000000 0.8838349999999999 0.0096300000000000
0.1872450000000000 0.8672750000000000 0.0096300000000000
0.3083300000000000 0.6122250000000000 0.0310950000000000
0.2877299999999999 0.6161650000000000 0.0096300000000000
0.3127550000000000 0.6327250000000000 0.0096300000000000
0.1377750000000000 0.5310950000000000 0.0583300000000000
0.1172750000000000 0.5096300000000000 0.0627550000000000
0.1338350000000000 0.5096300000000000 0.0377300000000000
0.3714850000000000 0.7475250000000000 0.0475500000000000
0.3754200000000000 0.7260600000000000 0.0681450000000000
0.3919800000000000 0.7260600000000000 0.0431200000000000
0.1122250000000000 0.7810950000000000 0.0583300000000000
0.1161650000000000 0.7596300000000000 0.0377300000000000
0.1327250000000000 0.7596300000000000 0.0627550000000000
0.3785150000000000 0.9975250000000000 0.0475500000000000
0.3580200000000001 0.9760599999999999 0.0431200000000000
0.3745800000000000 0.9760599999999999 0.0681450000000000
0.1285150000000000 0.9975250000000000 0.2024500000000000
0.1245800000000000 0.9760599999999999 0.1818550000000000
0.1080200000000000 0.9760599999999999 0.2068800000000000
0.3714850000000000 0.9975250000000000 0.2975500000000000
0.3754200000000000 0.9760599999999999 0.3181450000000000
0.3919800000000000 0.9760599999999999 0.2931200000000000
0.1214850000000000 0.9975250000000000 0.4524500000000000
0.1419800000000000 0.9760599999999999 0.4568800000000000
0.1254200000000000 0.9760599999999999 0.4318550000000000
0.3877750000000000 0.7810950000000000 0.4416700000000000
0.3838350000000000 0.7596300000000000 0.4622700000000000
0.3672750000000001 0.7596300000000000 0.4372450000000000
0.1285150000000000 0.7475250000000000 0.4524500000000000
0.1245800000000000 0.7260600000000000 0.4318550000000000
0.1080200000000000 0.7260600000000000 0.4568800000000000
0.1377750000000000 0.7810950000000000 0.3083300000000000
0.1172750000000000 0.7596300000000000 0.3127550000000000
0.1338350000000000 0.7596300000000000 0.2877300000000000
0.3622250000000001 0.7810950000000000 0.1916700000000000
0.3827250000000000 0.7596300000000000 0.1872450000000000
0.3661650000000000 0.7596300000000000 0.2122700000000000
0.1214850000000000 0.7475250000000000 0.2024500000000000
0.1419800000000000 0.7260600000000000 0.2068800000000000
0.1254200000000000 0.7260600000000000 0.1818550000000000
0.3785150000000000 0.7475250000000000 0.2975500000000000
0.3580200000000001 0.7260600000000000 0.2931200000000000
0.3745800000000000 0.7260600000000000 0.3181450000000000
0.1122250000000000 0.5310950000000000 0.3083300000000000
0.1161650000000000 0.5096300000000000 0.2877300000000000
0.1327250000000000 0.5096300000000000 0.3127550000000000
0.3877749999999999 0.5310950000000000 0.1916700000000000
0.3838349999999999 0.5096300000000000 0.2122700000000000
0.3672750000000000 0.5096300000000000 0.1872450000000000
0.2282150000000000 0.5683600000000000 0.3735150000000000
0.2241050000000000 0.5452300000000000 0.3921850000000000
0.2473250000000000 0.5452300000000000 0.3731800000000000
0.0217850000000000 0.5683600000000000 0.1235150000000000
0.0026750000000000 0.5452300000000000 0.1231800000000000
0.0258950000000000 0.5452300000000000 0.1421850000000000
0.0117800000000000 0.7124800000000000 0.3857400000000000
0.0076750000000000 0.6893500000000000 0.3670700000000000
0.0308950000000000 0.6893500000000000 0.3860750000000000
0.0217850000000000 0.8183600000000000 0.1264850000000000
0.0258950000000000 0.7952300000000000 0.1078150000000000
0.0026750000000000 0.7952300000000000 0.1268200000000000
0.0117800000000000 0.9624800000000000 0.3642600000000000
0.0308950000000000 0.9393500000000000 0.3639250000000000
0.0076750000000000 0.9393500000000000 0.3829300000000000
0.2382200000000000 0.9624800000000000 0.1142600000000000
0.2423250000000000 0.9393500000000000 0.1329300000000000
0.2191050000000000 0.9393500000000000 0.1139250000000000
0.2617800000000001 0.9624800000000000 0.3857400000000000
0.2576750000000000 0.9393500000000000 0.3670700000000000
0.2808950000000001 0.9393500000000000 0.3860750000000000
0.4882200000000000 0.9624800000000000 0.1357400000000000
0.4691050000000000 0.9393500000000000 0.1360750000000000
0.4923250000000000 0.9393500000000000 0.1170700000000000
0.4782150000000000 0.8183600000000000 0.3735150000000000
0.4741050000000001 0.7952300000000000 0.3921850000000000
0.4973250000000000 0.7952300000000000 0.3731800000000000
0.4976700000000001 0.7034000000000000 0.1267000000000000
0.4742450000000000 0.7044750000000000 0.1076850000000000
0.4782150000000000 0.5683600000000000 0.3764850000000000
0.4973250000000000 0.5452300000000000 0.3768200000000000
0.4741049999999999 0.5452300000000000 0.3578150000000000
0.2717850000000000 0.5683600000000000 0.1264850000000000
0.2758950000000000 0.5452300000000000 0.1078150000000000
0.2526750000000000 0.5452300000000000 0.1268200000000000
0.2617800000000001 0.7124800000000000 0.3642600000000000
0.2808950000000000 0.6893500000000000 0.3639250000000000
0.2576750000000000 0.6893500000000000 0.3829300000000000
0.2717850000000000 0.8183600000000000 0.1235150000000000
0.2526750000000000 0.7952300000000000 0.1231800000000000
0.2758950000000000 0.7952300000000000 0.1421850000000000
0.2282150000000000 0.8183600000000000 0.3764850000000000
0.2473250000000000 0.7952300000000000 0.3768200000000000
0.2241050000000000 0.7952300000000000 0.3578150000000000
0.2382200000000000 0.7124800000000000 0.1357400000000000
0.2191050000000000 0.6893500000000000 0.1360750000000000
0.2423250000000000 0.6893500000000000 0.1170700000000000
0.3622250000000000 0.5310950000000000 0.4416700000000000
0.3827249999999999 0.5096300000000000 0.4372450000000000
0.3661649999999999 0.5096300000000000 0.4622700000000000
0.4746400000000001 0.6705750000000000 0.6297299999999999
0.2024500000000000 0.6285149999999997 0.9975250000000000
0.1818550000000000 0.6245799999999999 0.9760599999999999
0.2068800000000000 0.6080200000000000 0.9760599999999999
0.2975500000000000 0.8714850000000001 0.9975250000000000
0.3181450000000001 0.8754199999999999 0.9760599999999999
0.2931200000000000 0.8919799999999999 0.9760599999999999
0.3083299999999999 0.6377750000000000 0.7810950000000000
0.3127550000000000 0.6172750000000001 0.7596300000000000
0.2877299999999999 0.6338350000000000 0.7596300000000000
0.1916700000000000 0.8622250000000000 0.7810950000000000
0.1872450000000000 0.8827250000000000 0.7596300000000000
0.2122700000000000 0.8661650000000001 0.7596300000000000
0.2024500000000000 0.6214850000000000 0.7475250000000000
0.2068800000000000 0.6419800000000000 0.7260600000000000
0.1818550000000000 0.6254200000000000 0.7260600000000000
0.2975500000000000 0.8785149999999998 0.7475250000000000
0.2931200000000000 0.8580200000000000 0.7260600000000000
0.3181450000000001 0.8745800000000000 0.7260600000000000
0.4524500000000000 0.6285149999999998 0.7475250000000000
0.4318550000000000 0.6245800000000000 0.7260600000000000
0.4568800000000001 0.6080200000000001 0.7260600000000000
0.4416700000000001 0.8877750000000000 0.7810950000000000
0.4622700000000000 0.8838349999999999 0.7596300000000000
0.4372450000000001 0.8672750000000000 0.7596300000000000
0.4416700000000000 0.8622250000000000 0.5310950000000000
0.4372450000000000 0.8827250000000000 0.5096300000000000
0.4622700000000000 0.8661650000000001 0.5096300000000000
0.4524500000000000 0.6214849999999998 0.9975250000000000
0.4568800000000001 0.6419799999999999 0.9760599999999999
0.4318550000000000 0.6254199999999999 0.9760599999999999
0.0475500000000000 0.8785149999999997 0.9975250000000000
0.0431200000000000 0.8580199999999999 0.9760599999999999
0.0681450000000000 0.8745799999999999 0.9760599999999999
0.0583300000000000 0.6122250000000001 0.7810950000000000
0.0377300000000000 0.6161650000000000 0.7596300000000000
0.0627550000000000 0.6327250000000000 0.7596300000000000
0.0475500000000000 0.8714850000000002 0.7475250000000000
0.0681450000000000 0.8754200000000000 0.7260600000000000
0.0431200000000000 0.8919800000000000 0.7260600000000000
0.0583300000000000 0.6377750000000000 0.5310950000000000
0.0627550000000000 0.6172750000000000 0.5096300000000000
0.0377300000000000 0.6338350000000000 0.5096300000000000
0.1916700000000000 0.8877750000000000 0.5310950000000000
0.2122700000000000 0.8838349999999999 0.5096300000000000
0.1872450000000000 0.8672750000000000 0.5096300000000000
0.3083299999999999 0.6122250000000000 0.5310950000000000
0.2877299999999999 0.6161650000000000 0.5096300000000000
0.3127549999999999 0.6327250000000000 0.5096300000000000
0.1377750000000000 0.5310950000000000 0.5583300000000000
0.1172750000000000 0.5096300000000000 0.5627550000000000
0.1338350000000000 0.5096300000000000 0.5377300000000000
0.3714850000000000 0.7475250000000000 0.5475500000000000
0.3754200000000000 0.7260600000000000 0.5681450000000000
0.3919799999999999 0.7260600000000000 0.5431200000000000
0.1122250000000000 0.7810950000000000 0.5583300000000000
0.1161650000000000 0.7596300000000000 0.5377300000000000
0.1327250000000000 0.7596300000000000 0.5627550000000000
0.3785150000000000 0.9975250000000000 0.5475500000000000
0.3580200000000000 0.9760599999999999 0.5431200000000000
0.3745800000000000 0.9760599999999999 0.5681450000000000
0.1285150000000000 0.9975250000000000 0.7024500000000000
0.1245800000000000 0.9760599999999999 0.6818550000000000
0.1080200000000000 0.9760599999999999 0.7068800000000001
0.3714850000000000 0.9975250000000000 0.7975500000000000
0.3754200000000000 0.9760599999999999 0.8181450000000000
0.3919800000000000 0.9760599999999999 0.7931200000000000
0.1214850000000000 0.9975249999999999 0.9524500000000000
0.1419800000000000 0.9760599999999998 0.9568800000000001
0.1254200000000000 0.9760599999999998 0.9318550000000000
0.3877750000000000 0.7810949999999999 0.9416700000000000
0.3838350000000000 0.7596299999999999 0.9622700000000000
0.3672750000000001 0.7596299999999999 0.9372450000000000
0.1285150000000000 0.7475249999999999 0.9524500000000000
0.1245800000000000 0.7260599999999999 0.9318550000000000
0.1080200000000000 0.7260599999999999 0.9568800000000001
0.1377750000000000 0.7810950000000000 0.8083300000000000
0.1172750000000000 0.7596300000000000 0.8127550000000000
0.1338350000000000 0.7596300000000000 0.7877300000000000
0.3622250000000001 0.7810950000000000 0.6916700000000000
0.3827250000000000 0.7596300000000000 0.6872450000000000
0.3661650000000000 0.7596300000000000 0.7122700000000000
0.1214850000000000 0.7475250000000000 0.7024500000000000
0.1419800000000000 0.7260600000000000 0.7068800000000001
0.1254200000000000 0.7260600000000000 0.6818550000000000
0.3785150000000000 0.7475250000000000 0.7975500000000000
0.3580200000000001 0.7260600000000000 0.7931200000000000
0.3745800000000000 0.7260600000000000 0.8181450000000000
0.1122250000000000 0.5310950000000000 0.8083300000000000
0.1161650000000000 0.5096300000000000 0.7877300000000000
0.1327250000000000 0.5096300000000000 0.8127550000000000
0.3877749999999999 0.5310950000000000 0.6916700000000000
0.3838350000000000 0.5096300000000000 0.7122700000000000
0.3672750000000000 0.5096300000000000 0.6872450000000000
0.2282150000000000 0.5683600000000000 0.8735149999999999
0.2241050000000000 0.5452300000000001 0.8921850000000000
0.2473250000000000 0.5452300000000001 0.8731800000000002
0.0217850000000000 0.5683600000000000 0.6235149999999999
0.0026750000000000 0.5452300000000001 0.6231800000000000
0.0258950000000000 0.5452300000000001 0.6421850000000000
0.0117800000000000 0.7124800000000000 0.8857400000000001
0.0076750000000000 0.6893500000000000 0.8670700000000000
0.0308950000000000 0.6893500000000000 0.8860749999999998
0.0217850000000000 0.8183600000000000 0.6264850000000001
0.0258950000000000 0.7952300000000000 0.6078150000000000
0.0026750000000000 0.7952300000000000 0.6268199999999999
0.0117800000000000 0.9624800000000000 0.8642600000000000
0.0308950000000000 0.9393500000000000 0.8639250000000002
0.0076750000000000 0.9393500000000000 0.8829300000000000
0.2382200000000000 0.9624800000000000 0.6142600000000000
0.2423250000000000 0.9393500000000000 0.6329300000000000
0.2191050000000000 0.9393500000000000 0.6139250000000001
0.2617800000000001 0.9624800000000000 0.8857400000000001
0.2576750000000000 0.9393500000000000 0.8670700000000000
0.2808950000000001 0.9393500000000000 0.8860749999999998
0.4882200000000000 0.9624800000000000 0.6357400000000001
0.4691050000000000 0.9393500000000000 0.6360749999999998
0.4923250000000000 0.9393500000000000 0.6170700000000000
0.4782150000000001 0.8183600000000000 0.8735149999999999
0.4741050000000001 0.7952300000000000 0.8921850000000000
0.4973250000000000 0.7952300000000000 0.8731800000000002
0.4976700000000001 0.7034000000000000 0.6267000000000000
0.4742450000000000 0.7044750000000000 0.6076850000000000
0.4782150000000001 0.5683600000000000 0.8764850000000001
0.4973250000000000 0.5452300000000001 0.8768199999999999
0.4741050000000000 0.5452300000000001 0.8578150000000000
0.2717849999999999 0.5683600000000000 0.6264850000000001
0.2758949999999999 0.5452300000000001 0.6078150000000000
0.2526749999999999 0.5452300000000001 0.6268199999999999
0.2617800000000000 0.7124800000000000 0.8642600000000000
0.2808950000000000 0.6893500000000000 0.8639250000000002
0.2576750000000000 0.6893500000000000 0.8829300000000000
0.2717849999999999 0.8183600000000000 0.6235149999999999
0.2526749999999999 0.7952300000000000 0.6231800000000000
0.2758949999999999 0.7952300000000000 0.6421850000000000
0.2282150000000000 0.8183600000000000 0.8764850000000001
0.2473250000000000 0.7952300000000000 0.8768199999999999
0.2241050000000000 0.7952300000000000 0.8578150000000000
0.2382200000000000 0.7124800000000000 0.6357400000000001
0.2191050000000000 0.6893500000000000 0.6360749999999998
0.2423250000000000 0.6893500000000000 0.6170700000000000
0.3622250000000000 0.5310949999999999 0.9416700000000000
0.3827249999999999 0.5096299999999999 0.9372450000000000
0.3661650000000000 0.5096299999999999 0.9622700000000000
0.9746400000000000 0.1705750000000000 0.1297300000000000
0.7024500000000000 0.1285150000000000 0.4975249999999999
0.6818550000000000 0.1245800000000000 0.4760600000000000
0.7068800000000001 0.1080200000000000 0.4760600000000000
0.7975500000000000 0.3714850000000000 0.4975249999999999
0.8181450000000000 0.3754200000000000 0.4760600000000000
0.7931200000000000 0.3919799999999999 0.4760600000000000
0.8083300000000000 0.1377750000000000 0.2810950000000000
0.8127550000000000 0.1172750000000000 0.2596300000000000
0.7877300000000000 0.1338350000000000 0.2596300000000000
0.6916700000000000 0.3622250000000001 0.2810950000000000
0.6872450000000000 0.3827250000000000 0.2596300000000000
0.7122700000000000 0.3661650000000000 0.2596300000000000
0.7024500000000000 0.1214850000000000 0.2475250000000000
0.7068800000000001 0.1419800000000000 0.2260600000000000
0.6818550000000000 0.1254200000000000 0.2260600000000000
0.7975500000000000 0.3785150000000000 0.2475250000000000
0.7931200000000000 0.3580200000000000 0.2260600000000000
0.8181450000000000 0.3745800000000000 0.2260600000000000
0.9524500000000000 0.1285150000000000 0.2475250000000000
0.9318550000000000 0.1245800000000000 0.2260600000000000
0.9568800000000001 0.1080200000000000 0.2260600000000000
0.9416700000000000 0.3877750000000000 0.2810950000000000
0.9622700000000000 0.3838350000000000 0.2596300000000000
0.9372450000000000 0.3672750000000000 0.2596300000000000
0.9416700000000000 0.3622250000000001 0.0310950000000000
0.9372450000000000 0.3827250000000000 0.0096300000000000
0.9622700000000000 0.3661650000000000 0.0096300000000000
0.9524500000000000 0.1214850000000000 0.4975249999999999
0.9568800000000001 0.1419800000000000 0.4760600000000000
0.9318550000000000 0.1254200000000000 0.4760600000000000
0.5475500000000000 0.3785149999999999 0.4975249999999999
0.5431200000000000 0.3580199999999999 0.4760600000000000
0.5681450000000000 0.3745799999999999 0.4760600000000000
0.5583300000000000 0.1122250000000000 0.2810950000000000
0.5377300000000000 0.1161650000000000 0.2596300000000000
0.5627550000000000 0.1327250000000000 0.2596300000000000
0.5475500000000000 0.3714850000000000 0.2475250000000000
0.5681450000000000 0.3754200000000000 0.2260600000000000
0.5431200000000000 0.3919800000000000 0.2260600000000000
0.5583300000000000 0.1377750000000000 0.0310950000000000
0.5627550000000000 0.1172750000000000 0.0096300000000000
0.5377300000000000 0.1338350000000000 0.0096300000000000
0.6916700000000000 0.3877750000000000 0.0310950000000000
0.7122700000000000 0.3838350000000000 0.0096300000000000
0.6872450000000000 0.3672750000000000 0.0096300000000000
0.8083300000000000 0.1122250000000000 0.0310950000000000
0.7877300000000000 0.1161650000000000 0.0096300000000000
0.8127550000000000 0.1327250000000000 0.0096300000000000
0.6377750000000000 0.0310950000000000 0.0583300000000000
0.6172750000000000 0.0096300000000000 0.0627550000000000
0.6338350000000000 0.0096300000000000 0.0377300000000000
0.8714850000000002 0.2475250000000000 0.0475500000000000
0.8754200000000000 0.2260600000000000 0.0681450000000000
0.8919800000000000 0.2260600000000000 0.0431200000000000
0.6122250000000000 0.2810950000000000 0.0583300000000000
0.6161650000000000 0.2596300000000000 0.0377300000000000
0.6327250000000000 0.2596300000000000 0.0627550000000000
0.8785149999999998 0.4975249999999999 0.0475500000000000
0.8580200000000000 0.4760600000000000 0.0431200000000000
0.8745800000000000 0.4760600000000000 0.0681450000000000
0.6285149999999998 0.4975249999999999 0.2024500000000000
0.6245800000000000 0.4760600000000000 0.1818550000000000
0.6080200000000000 0.4760600000000000 0.2068800000000000
0.8714850000000002 0.4975249999999999 0.2975500000000000
0.8754200000000000 0.4760600000000000 0.3181450000000000
0.8919800000000000 0.4760600000000000 0.2931200000000000
0.6214850000000000 0.4975249999999999 0.4524500000000000
0.6419800000000000 0.4760599999999999 0.4568800000000000
0.6254200000000000 0.4760600000000000 0.4318550000000000
0.8877750000000000 0.2810950000000000 0.4416700000000000
0.8838349999999999 0.2596300000000000 0.4622700000000000
0.8672750000000000 0.2596300000000001 0.4372450000000000
0.6285149999999998 0.2475250000000000 0.4524500000000000
0.6245800000000000 0.2260600000000000 0.4318550000000000
0.6080200000000000 0.2260600000000000 0.4568800000000000
0.6377750000000000 0.2810950000000000 0.3083300000000000
0.6172750000000000 0.2596300000000001 0.3127550000000000
0.6338350000000000 0.2596300000000001 0.2877300000000000
0.8622250000000000 0.2810950000000000 0.1916700000000000
0.8827250000000000 0.2596300000000000 0.1872450000000000
0.8661650000000001 0.2596300000000000 0.2122700000000000
0.6214850000000000 0.2475250000000000 0.2024500000000000
0.6419800000000000 0.2260600000000000 0.2068800000000000
0.6254200000000000 0.2260600000000000 0.1818550000000000
0.8785149999999998 0.2475250000000000 0.2975500000000000
0.8580200000000000 0.2260600000000000 0.2931200000000000
0.8745800000000000 0.2260600000000000 0.3181450000000000
0.6122250000000000 0.0310950000000000 0.3083300000000000
0.6161650000000000 0.0096300000000000 0.2877300000000000
0.6327250000000000 0.0096300000000000 0.3127550000000000
0.8877750000000000 0.0310950000000000 0.1916700000000000
0.8838349999999999 0.0096300000000000 0.2122700000000000
0.8672750000000000 0.0096300000000000 0.1872450000000000
0.7282150000000001 0.0683600000000000 0.3735150000000000
0.7241050000000000 0.0452300000000000 0.3921850000000000
0.7473250000000000 0.0452300000000000 0.3731800000000000
0.5217849999999999 0.0683600000000000 0.1235150000000000
0.5026750000000000 0.0452300000000000 0.1231800000000000
0.5258950000000000 0.0452300000000000 0.1421850000000000
0.5117800000000000 0.2124800000000000 0.3857400000000000
0.5076750000000000 0.1893500000000000 0.3670700000000000
0.5308950000000000 0.1893500000000000 0.3860750000000000
0.5217849999999999 0.3183599999999999 0.1264850000000000
0.5258950000000000 0.2952300000000000 0.1078150000000000
0.5026750000000000 0.2952300000000000 0.1268200000000000
0.5117800000000000 0.4624800000000001 0.3642600000000000
0.5308950000000000 0.4393500000000000 0.3639250000000000
0.5076750000000000 0.4393500000000000 0.3829300000000000
0.7382200000000000 0.4624800000000001 0.1142600000000000
0.7423250000000000 0.4393500000000000 0.1329300000000000
0.7191050000000001 0.4393500000000000 0.1139250000000000
0.7617800000000000 0.4624800000000001 0.3857400000000000
0.7576750000000000 0.4393500000000000 0.3670700000000000
0.7808949999999999 0.4393500000000000 0.3860750000000000
0.9882200000000000 0.4624800000000001 0.1357400000000000
0.9691050000000001 0.4393500000000000 0.1360750000000000
0.9923250000000000 0.4393500000000000 0.1170700000000000
0.9782150000000001 0.3183599999999999 0.3735150000000000
0.9741050000000000 0.2952300000000000 0.3921850000000000
0.9973250000000000 0.2952300000000000 0.3731800000000000
0.9976700000000001 0.2034000000000000 0.1267000000000000
0.9742450000000000 0.2044750000000000 0.1076850000000000
0.9782150000000001 0.0683600000000000 0.3764850000000000
0.9973250000000000 0.0452300000000000 0.3768200000000000
0.9741050000000000 0.0452300000000000 0.3578150000000000
0.7717849999999999 0.0683600000000000 0.1264850000000000
0.7758950000000000 0.0452300000000000 0.1078150000000000
0.7526750000000000 0.0452300000000000 0.1268200000000000
0.7617800000000000 0.2124800000000000 0.3642600000000000
0.7808949999999999 0.1893500000000000 0.3639250000000000
0.7576750000000000 0.1893500000000000 0.3829300000000000
0.7717849999999999 0.3183599999999999 0.1235150000000000
0.7526750000000000 0.2952300000000000 0.1231800000000000
0.7758950000000000 0.2952300000000000 0.1421850000000000
0.7282150000000001 0.3183599999999999 0.3764850000000000
0.7473250000000000 0.2952300000000000 0.3768200000000000
0.7241050000000000 0.2952300000000000 0.3578150000000000
0.7382200000000000 0.2124800000000000 0.1357400000000000
0.7191050000000001 0.1893500000000000 0.1360750000000000
0.7423250000000000 0.1893500000000000 0.1170700000000000
0.8622250000000000 0.0310950000000000 0.4416700000000000
0.8827250000000000 0.0096300000000000 0.4372450000000000
0.8661650000000001 0.0096300000000000 0.4622700000000000
0.9746400000000000 0.1705750000000000 0.6297299999999999
0.7024499999999999 0.1285150000000000 0.9975250000000000
0.6818549999999999 0.1245800000000000 0.9760599999999999
0.7068800000000000 0.1080200000000000 0.9760599999999999
0.7975499999999999 0.3714850000000000 0.9975250000000000
0.8181449999999999 0.3754200000000000 0.9760599999999999
0.7931199999999999 0.3919800000000000 0.9760599999999999
0.8083300000000000 0.1377750000000000 0.7810950000000000
0.8127550000000000 0.1172750000000000 0.7596300000000000
0.7877300000000000 0.1338350000000000 0.7596300000000000
0.6916700000000000 0.3622250000000001 0.7810950000000000
0.6872450000000000 0.3827250000000000 0.7596300000000000
0.7122700000000000 0.3661650000000000 0.7596300000000000
0.7024500000000000 0.1214850000000000 0.7475250000000000
0.7068800000000001 0.1419800000000000 0.7260600000000000
0.6818550000000000 0.1254200000000000 0.7260600000000000
0.7975500000000000 0.3785150000000000 0.7475250000000000
0.7931200000000000 0.3580200000000001 0.7260600000000000
0.8181450000000000 0.3745800000000000 0.7260600000000000
0.9524500000000000 0.1285150000000000 0.7475250000000000
0.9318550000000000 0.1245800000000000 0.7260600000000000
0.9568800000000001 0.1080200000000000 0.7260600000000000
0.9416700000000000 0.3877750000000000 0.7810950000000000
0.9622700000000000 0.3838350000000000 0.7596300000000000
0.9372450000000000 0.3672750000000001 0.7596300000000000
0.9416700000000000 0.3622250000000000 0.5310950000000000
0.9372450000000000 0.3827249999999999 0.5096300000000000
0.9622700000000000 0.3661650000000000 0.5096300000000000
0.9524499999999999 0.1214850000000000 0.9975250000000000
0.9568800000000000 0.1419800000000000 0.9760599999999999
0.9318549999999999 0.1254200000000000 0.9760599999999999
0.5475500000000000 0.3785150000000000 0.9975250000000000
0.5431200000000000 0.3580200000000001 0.9760599999999999
0.5681450000000000 0.3745800000000000 0.9760599999999999
0.5583300000000000 0.1122250000000000 0.7810950000000000
0.5377300000000002 0.1161650000000000 0.7596300000000000
0.5627550000000000 0.1327250000000000 0.7596300000000000
0.5475500000000001 0.3714850000000000 0.7475250000000000
0.5681450000000001 0.3754200000000000 0.7260600000000000
0.5431200000000002 0.3919800000000000 0.7260600000000000
0.5583300000000000 0.1377750000000000 0.5310950000000000
0.5627550000000000 0.1172750000000000 0.5096300000000000
0.5377300000000000 0.1338350000000000 0.5096300000000000
0.6916700000000000 0.3877749999999999 0.5310950000000000
0.7122700000000000 0.3838349999999999 0.5096300000000000
0.6872450000000000 0.3672750000000000 0.5096300000000000
0.8083300000000000 0.1122250000000000 0.5310950000000000
0.7877300000000000 0.1161650000000000 0.5096300000000000
0.8127550000000000 0.1327250000000000 0.5096300000000000
0.6377750000000000 0.0310950000000000 0.5583300000000000
0.6172750000000001 0.0096300000000000 0.5627550000000000
0.6338350000000000 0.0096300000000000 0.5377300000000000
0.8714850000000002 0.2475250000000000 0.5475500000000000
0.8754200000000000 0.2260600000000000 0.5681450000000000
0.8919800000000000 0.2260600000000000 0.5431200000000000
0.6122250000000000 0.2810950000000000 0.5583300000000000
0.6161650000000000 0.2596300000000000 0.5377300000000000
0.6327250000000000 0.2596300000000000 0.5627550000000000
0.8785149999999998 0.4975249999999999 0.5475500000000000
0.8580200000000000 0.4760599999999999 0.5431200000000000
0.8745800000000000 0.4760600000000000 0.5681450000000000
0.6285149999999998 0.4975250000000000 0.7024500000000000
0.6245800000000000 0.4760600000000000 0.6818550000000000
0.6080200000000001 0.4760600000000000 0.7068800000000001
0.8714850000000002 0.4975250000000000 0.7975500000000000
0.8754200000000000 0.4760600000000000 0.8181450000000000
0.8919800000000000 0.4760600000000000 0.7931200000000000
0.6214849999999998 0.4975250000000000 0.9524500000000000
0.6419799999999999 0.4760600000000000 0.9568800000000001
0.6254199999999999 0.4760600000000000 0.9318550000000000
0.8877749999999999 0.2810950000000000 0.9416700000000000
0.8838349999999998 0.2596300000000000 0.9622700000000000
0.8672749999999999 0.2596300000000000 0.9372450000000000
0.6285149999999997 0.2475250000000000 0.9524500000000000
0.6245799999999999 0.2260600000000000 0.9318550000000000
0.6080200000000000 0.2260600000000000 0.9568800000000001
0.6377750000000000 0.2810950000000000 0.8083300000000000
0.6172750000000001 0.2596300000000000 0.8127550000000000
0.6338350000000000 0.2596300000000000 0.7877300000000000
0.8622250000000000 0.2810950000000000 0.6916700000000000
0.8827250000000000 0.2596300000000000 0.6872450000000000
0.8661650000000001 0.2596300000000000 0.7122700000000000
0.6214850000000000 0.2475250000000000 0.7024500000000000
0.6419800000000000 0.2260600000000000 0.7068800000000001
0.6254200000000000 0.2260600000000000 0.6818550000000000
0.8785149999999998 0.2475250000000000 0.7975500000000000
0.8580200000000000 0.2260600000000000 0.7931200000000000
0.8745800000000000 0.2260600000000000 0.8181450000000000
0.6122250000000001 0.0310950000000000 0.8083300000000000
0.6161650000000000 0.0096300000000000 0.7877300000000000
0.6327250000000000 0.0096300000000000 0.8127550000000000
0.8877750000000000 0.0310950000000000 0.6916700000000000
0.8838349999999999 0.0096300000000000 0.7122700000000000
0.8672750000000000 0.0096300000000000 0.6872450000000000
0.7282150000000001 0.0683600000000000 0.8735149999999999
0.7241050000000000 0.0452300000000000 0.8921850000000000
0.7473250000000000 0.0452300000000000 0.8731800000000002
0.5217849999999999 0.0683600000000000 0.6235149999999999
0.5026750000000001 0.0452300000000000 0.6231800000000000
0.5258950000000000 0.0452300000000000 0.6421850000000000
0.5117800000000000 0.2124800000000000 0.8857400000000001
0.5076750000000001 0.1893500000000000 0.8670700000000000
0.5308950000000001 0.1893500000000000 0.8860749999999998
0.5217849999999999 0.3183600000000000 0.6264850000000001
0.5258950000000000 0.2952299999999999 0.6078150000000000
0.5026750000000001 0.2952299999999999 0.6268199999999999
0.5117800000000000 0.4624800000000001 0.8642600000000000
0.5308950000000001 0.4393500000000000 0.8639250000000002
0.5076750000000001 0.4393500000000000 0.8829300000000000
0.7382200000000000 0.4624800000000001 0.6142600000000000
0.7423250000000000 0.4393500000000000 0.6329300000000000
0.7191050000000001 0.4393500000000000 0.6139250000000001
0.7617800000000000 0.4624800000000001 0.8857400000000001
0.7576750000000000 0.4393500000000000 0.8670700000000000
0.7808949999999999 0.4393500000000000 0.8860749999999998
0.9882200000000000 0.4624800000000001 0.6357400000000001
0.9691050000000001 0.4393500000000000 0.6360749999999998
0.9923250000000000 0.4393500000000000 0.6170700000000000
0.9782150000000001 0.3183600000000000 0.8735149999999999
0.9741050000000000 0.2952300000000000 0.8921850000000000
0.9973250000000000 0.2952300000000000 0.8731800000000002
0.9976700000000001 0.2034000000000000 0.6267000000000000
0.9742450000000000 0.2044750000000000 0.6076850000000000
0.9782150000000001 0.0683600000000000 0.8764850000000001
0.9973250000000000 0.0452300000000000 0.8768199999999999
0.9741050000000000 0.0452300000000000 0.8578150000000000
0.7717849999999999 0.0683600000000000 0.6264850000000001
0.7758950000000000 0.0452300000000000 0.6078150000000000
0.7526750000000000 0.0452300000000000 0.6268199999999999
0.7617800000000000 0.2124800000000000 0.8642600000000000
0.7808949999999999 0.1893500000000000 0.8639250000000002
0.7576750000000000 0.1893500000000000 0.8829300000000000
0.7717849999999999 0.3183600000000000 0.6235149999999999
0.7526750000000000 0.2952299999999999 0.6231800000000000
0.7758950000000000 0.2952299999999999 0.6421850000000000
0.7282150000000001 0.3183600000000000 0.8764850000000001
0.7473250000000000 0.2952300000000000 0.8768199999999999
0.7241050000000000 0.2952300000000000 0.8578150000000000
0.7382200000000000 0.2124800000000000 0.6357400000000001
0.7191050000000001 0.1893500000000000 0.6360749999999998
0.7423250000000000 0.1893500000000000 0.6170700000000000
0.8622249999999999 0.0310950000000000 0.9416700000000000
0.8827249999999999 0.0096300000000000 0.9372450000000000
0.8661650000000000 0.0096300000000000 0.9622700000000000
0.9746400000000000 0.6705750000000000 0.1297300000000000
0.7024500000000000 0.6285149999999998 0.4975249999999999
0.6818550000000000 0.6245800000000000 0.4760600000000000
0.7068800000000001 0.6080200000000000 0.4760600000000000
0.7975500000000000 0.8714850000000002 0.4975249999999999
0.8181450000000000 0.8754200000000000 0.4760600000000000
0.7931200000000000 0.8919800000000000 0.4760600000000000
0.8083300000000000 0.6377750000000000 0.2810950000000000
0.8127550000000000 0.6172750000000000 0.2596300000000000
0.7877300000000000 0.6338350000000000 0.2596300000000000
0.6916700000000000 0.8622250000000000 0.2810950000000000
0.6872450000000000 0.8827250000000000 0.2596300000000000
0.7122700000000000 0.8661650000000001 0.2596300000000000
0.7024500000000000 0.6214850000000000 0.2475250000000000
0.7068800000000001 0.6419800000000000 0.2260600000000000
0.6818550000000000 0.6254200000000000 0.2260600000000000
0.7975500000000000 0.8785149999999998 0.2475250000000000
0.7931200000000000 0.8580200000000000 0.2260600000000000
0.8181450000000000 0.8745800000000000 0.2260600000000000
0.9524500000000000 0.6285149999999998 0.2475250000000000
0.9318550000000000 0.6245800000000000 0.2260600000000000
0.9568800000000001 0.6080200000000000 0.2260600000000000
0.9416700000000000 0.8877750000000000 0.2810950000000000
0.9622700000000000 0.8838349999999999 0.2596300000000000
0.9372450000000000 0.8672750000000000 0.2596300000000000
0.9416700000000000 0.8622250000000000 0.0310950000000000
0.9372450000000000 0.8827250000000000 0.0096300000000000
0.9622700000000000 0.8661650000000001 0.0096300000000000
0.9524500000000000 0.6214850000000000 0.4975249999999999
0.9568800000000001 0.6419800000000000 0.4760600000000000
0.9318550000000000 0.6254200000000000 0.4760600000000000
0.5475500000000001 0.8785149999999998 0.4975249999999999
0.5431200000000002 0.8580200000000000 0.4760600000000000
0.5681450000000001 0.8745800000000000 0.4760600000000000
0.5583300000000000 0.6122250000000000 0.2810950000000000
0.5377300000000002 0.6161650000000000 0.2596300000000000
0.5627550000000000 0.6327250000000000 0.2596300000000000
0.5475500000000001 0.8714850000000002 0.2475250000000000
0.5681450000000001 0.8754200000000000 0.2260600000000000
0.5431200000000002 0.8919800000000000 0.2260600000000000
0.5583300000000000 0.6377750000000000 0.0310950000000000
0.5627550000000000 0.6172750000000000 0.0096300000000000
0.5377300000000002 0.6338350000000000 0.0096300000000000
0.6916700000000000 0.8877750000000000 0.0310950000000000
0.7122700000000000 0.8838349999999999 0.0096300000000000
0.6872450000000000 0.8672750000000000 0.0096300000000000
0.8083300000000000 0.6122250000000000 0.0310950000000000
0.7877300000000000 0.6161650000000000 0.0096300000000000
0.8127550000000000 0.6327250000000000 0.0096300000000000
0.6377750000000000 0.5310950000000000 0.0583300000000000
0.6172750000000000 0.5096300000000000 0.0627550000000000
0.6338350000000000 0.5096300000000000 0.0377300000000000
0.8714850000000002 0.7475250000000000 0.0475500000000000
0.8754200000000000 0.7260600000000000 0.0681450000000000
0.8919800000000000 0.7260600000000000 0.0431200000000000
0.6122250000000001 0.7810950000000000 0.0583300000000000
0.6161650000000000 0.7596300000000000 0.0377300000000000
0.6327250000000000 0.7596300000000000 0.0627550000000000
0.8785149999999997 0.9975250000000000 0.0475500000000000
0.8580199999999999 0.9760599999999999 0.0431200000000000
0.8745799999999999 0.9760599999999999 0.0681450000000000
0.6285149999999997 0.9975250000000000 0.2024500000000000
0.6245799999999999 0.9760599999999999 0.1818550000000000
0.6080200000000000 0.9760599999999999 0.2068800000000000
0.8714850000000001 0.9975250000000000 0.2975500000000000
0.8754199999999999 0.9760599999999999 0.3181450000000000
0.8919799999999999 0.9760599999999999 0.2931200000000000
0.6214849999999998 0.9975250000000000 0.4524500000000000
0.6419799999999999 0.9760599999999999 0.4568800000000000
0.6254199999999999 0.9760599999999999 0.4318550000000000
0.8877750000000000 0.7810950000000000 0.4416700000000000
0.8838349999999999 0.7596300000000000 0.4622700000000000
0.8672750000000000 0.7596300000000000 0.4372450000000000
0.6285149999999998 0.7475250000000000 0.4524500000000000
0.6245800000000000 0.7260600000000000 0.4318550000000000
0.6080200000000001 0.7260600000000000 0.4568800000000000
0.6377750000000000 0.7810950000000000 0.3083300000000000
0.6172750000000001 0.7596300000000000 0.3127550000000000
0.6338350000000000 0.7596300000000000 0.2877300000000000
0.8622250000000000 0.7810950000000000 0.1916700000000000
0.8827250000000000 0.7596300000000000 0.1872450000000000
0.8661650000000001 0.7596300000000000 0.2122700000000000
0.6214850000000000 0.7475250000000000 0.2024500000000000
0.6419800000000000 0.7260600000000000 0.2068800000000000
0.6254200000000000 0.7260600000000000 0.1818550000000000
0.8785149999999998 0.7475250000000000 0.2975500000000000
0.8580200000000000 0.7260600000000000 0.2931200000000000
0.8745800000000000 0.7260600000000000 0.3181450000000000
0.6122250000000000 0.5310950000000000 0.3083300000000000
0.6161650000000000 0.5096300000000000 0.2877300000000000
0.6327250000000000 0.5096300000000000 0.3127550000000000
0.8877750000000000 0.5310950000000000 0.1916700000000000
0.8838349999999999 0.5096300000000000 0.2122700000000000
0.8672750000000000 0.5096300000000000 0.1872450000000000
0.7282150000000001 0.5683600000000000 0.3735150000000000
0.7241050000000000 0.5452300000000000 0.3921850000000000
0.7473250000000000 0.5452300000000000 0.3731800000000000
0.5217849999999999 0.5683600000000000 0.1235150000000000
0.5026750000000000 0.5452300000000000 0.1231800000000000
0.5258950000000000 0.5452300000000000 0.1421850000000000
0.5117800000000000 0.7124800000000000 0.3857400000000000
0.5076750000000001 0.6893500000000000 0.3670700000000000
0.5308950000000001 0.6893500000000000 0.3860750000000000
0.5217849999999999 0.8183600000000000 0.1264850000000000
0.5258950000000000 0.7952300000000000 0.1078150000000000
0.5026750000000001 0.7952300000000000 0.1268200000000000
0.5117799999999999 0.9624800000000000 0.3642600000000000
0.5308950000000000 0.9393500000000000 0.3639250000000000
0.5076750000000000 0.9393500000000000 0.3829300000000000
0.7382199999999999 0.9624800000000000 0.1142600000000000
0.7423249999999999 0.9393500000000000 0.1329300000000000
0.7191050000000000 0.9393500000000000 0.1139250000000000
0.7617799999999999 0.9624800000000000 0.3857400000000000
0.7576749999999999 0.9393500000000000 0.3670700000000000
0.7808949999999998 0.9393500000000000 0.3860750000000000
0.9882199999999999 0.9624800000000000 0.1357400000000000
0.9691050000000000 0.9393500000000000 0.1360750000000000
0.9923249999999999 0.9393500000000000 0.1170700000000000
0.9782150000000001 0.8183600000000000 0.3735150000000000
0.9741050000000000 0.7952300000000000 0.3921850000000000
0.9973250000000000 0.7952300000000000 0.3731800000000000
0.9976700000000001 0.7034000000000000 0.1267000000000000
0.9742450000000000 0.7044750000000000 0.1076850000000000
0.9782150000000001 0.5683600000000000 0.3764850000000000
0.9973250000000000 0.5452300000000000 0.3768200000000000
0.9741050000000000 0.5452300000000000 0.3578150000000000
0.7717849999999999 0.5683600000000000 0.1264850000000000
0.7758950000000000 0.5452300000000000 0.1078150000000000
0.7526750000000000 0.5452300000000000 0.1268200000000000
0.7617800000000000 0.7124800000000000 0.3642600000000000
0.7808949999999999 0.6893500000000000 0.3639250000000000
0.7576750000000000 0.6893500000000000 0.3829300000000000
0.7717849999999999 0.8183600000000000 0.1235150000000000
0.7526750000000000 0.7952300000000000 0.1231800000000000
0.7758950000000000 0.7952300000000000 0.1421850000000000
0.7282150000000001 0.8183600000000000 0.3764850000000000
0.7473250000000000 0.7952300000000000 0.3768200000000000
0.7241050000000000 0.7952300000000000 0.3578150000000000
0.7382200000000000 0.7124800000000000 0.1357400000000000
0.7191050000000001 0.6893500000000000 0.1360750000000000
0.7423250000000000 0.6893500000000000 0.1170700000000000
0.8622250000000000 0.5310950000000000 0.4416700000000000
0.8827250000000000 0.5096300000000000 0.4372450000000000
0.8661650000000001 0.5096300000000000 0.4622700000000000
0.9746400000000000 0.6705750000000000 0.6297299999999999
0.7024499999999999 0.6285149999999997 0.9975250000000000
0.6818549999999999 0.6245799999999999 0.9760599999999999
0.7068800000000000 0.6080200000000000 0.9760599999999999
0.7975499999999999 0.8714850000000001 0.9975250000000000
0.8181449999999999 0.8754199999999999 0.9760599999999999
0.7931199999999999 0.8919799999999999 0.9760599999999999
0.8083300000000000 0.6377750000000000 0.7810950000000000
0.8127550000000000 0.6172750000000001 0.7596300000000000
0.7877300000000000 0.6338350000000000 0.7596300000000000
0.6916700000000000 0.8622250000000000 0.7810950000000000
0.6872450000000000 0.8827250000000000 0.7596300000000000
0.7122700000000000 0.8661650000000001 0.7596300000000000
0.7024500000000000 0.6214850000000000 0.7475250000000000
0.7068800000000001 0.6419800000000000 0.7260600000000000
0.6818550000000000 0.6254200000000000 0.7260600000000000
0.7975500000000000 0.8785149999999998 0.7475250000000000
0.7931200000000000 0.8580200000000000 0.7260600000000000
0.8181450000000000 0.8745800000000000 0.7260600000000000
0.9524500000000000 0.6285149999999998 0.7475250000000000
0.9318550000000000 0.6245800000000000 0.7260600000000000
0.9568800000000001 0.6080200000000001 0.7260600000000000
0.9416700000000000 0.8877750000000000 0.7810950000000000
0.9622700000000000 0.8838349999999999 0.7596300000000000
0.9372450000000000 0.8672750000000000 0.7596300000000000
0.9416700000000000 0.8622250000000000 0.5310950000000000
0.9372450000000000 0.8827250000000000 0.5096300000000000
0.9622700000000000 0.8661650000000001 0.5096300000000000
0.9524499999999999 0.6214849999999998 0.9975250000000000
0.9568800000000000 0.6419799999999999 0.9760599999999999
0.9318549999999999 0.6254199999999999 0.9760599999999999
0.5475500000000001 0.8785149999999997 0.9975250000000000
0.5431200000000000 0.8580199999999999 0.9760599999999999
0.5681450000000000 0.8745799999999999 0.9760599999999999
0.5583300000000001 0.6122250000000001 0.7810950000000000
0.5377300000000003 0.6161650000000000 0.7596300000000000
0.5627550000000001 0.6327250000000000 0.7596300000000000
0.5475500000000002 0.8714850000000002 0.7475250000000000
0.5681450000000001 0.8754200000000000 0.7260600000000000
0.5431200000000002 0.8919800000000000 0.7260600000000000
0.5583300000000000 0.6377750000000000 0.5310950000000000
0.5627550000000000 0.6172750000000000 0.5096300000000000
0.5377300000000002 0.6338350000000000 0.5096300000000000
0.6916700000000000 0.8877750000000000 0.5310950000000000
0.7122700000000000 0.8838349999999999 0.5096300000000000
0.6872450000000000 0.8672750000000000 0.5096300000000000
0.8083300000000000 0.6122250000000000 0.5310950000000000
0.7877300000000000 0.6161650000000000 0.5096300000000000
0.8127550000000000 0.6327250000000000 0.5096300000000000
0.6377750000000000 0.5310950000000000 0.5583300000000000
0.6172750000000001 0.5096300000000000 0.5627550000000000
0.6338350000000000 0.5096300000000000 0.5377300000000000
0.8714850000000002 0.7475250000000000 0.5475500000000000
0.8754200000000000 0.7260600000000000 0.5681450000000000
0.8919800000000000 0.7260600000000000 0.5431200000000000
0.6122250000000001 0.7810950000000000 0.5583300000000000
0.6161650000000000 0.7596300000000000 0.5377300000000000
0.6327250000000000 0.7596300000000000 0.5627550000000000
0.8785149999999997 0.9975250000000000 0.5475500000000000
0.8580199999999999 0.9760599999999999 0.5431200000000000
0.8745799999999999 0.9760599999999999 0.5681450000000000
0.6285149999999997 0.9975250000000000 0.7024500000000000
0.6245799999999999 0.9760599999999999 0.6818550000000000
0.6080200000000000 0.9760599999999999 0.7068800000000001
0.8714850000000001 0.9975250000000000 0.7975500000000000
0.8754199999999999 0.9760599999999999 0.8181450000000000
0.8919799999999999 0.9760599999999999 0.7931200000000000
0.6214849999999997 0.9975249999999999 0.9524500000000000
0.6419799999999998 0.9760599999999998 0.9568800000000001
0.6254199999999998 0.9760599999999998 0.9318550000000000
0.8877749999999999 0.7810949999999999 0.9416700000000000
0.8838349999999998 0.7596299999999999 0.9622700000000000
0.8672749999999999 0.7596299999999999 0.9372450000000000
0.6285149999999997 0.7475249999999999 0.9524500000000000
0.6245799999999999 0.7260599999999999 0.9318550000000000
0.6080200000000000 0.7260599999999999 0.9568800000000001
0.6377750000000000 0.7810950000000000 0.8083300000000000
0.6172750000000001 0.7596300000000000 0.8127550000000000
0.6338350000000000 0.7596300000000000 0.7877300000000000
0.8622250000000000 0.7810950000000000 0.6916700000000000
0.8827250000000000 0.7596300000000000 0.6872450000000000
0.8661650000000001 0.7596300000000000 0.7122700000000000
0.6214850000000000 0.7475250000000000 0.7024500000000000
0.6419800000000000 0.7260600000000000 0.7068800000000001
0.6254200000000000 0.7260600000000000 0.6818550000000000
0.8785149999999998 0.7475250000000000 0.7975500000000000
0.8580200000000000 0.7260600000000000 0.7931200000000000
0.8745800000000000 0.7260600000000000 0.8181450000000000
0.6122250000000001 0.5310950000000000 0.8083300000000000
0.6161650000000000 0.5096300000000000 0.7877300000000000
0.6327250000000000 0.5096300000000000 0.8127550000000000
0.8877750000000000 0.5310950000000000 0.6916700000000000
0.8838349999999999 0.5096300000000000 0.7122700000000000
0.8672750000000000 0.5096300000000000 0.6872450000000000
0.7282150000000001 0.5683600000000000 0.8735149999999999
0.7241050000000000 0.5452300000000001 0.8921850000000000
0.7473250000000000 0.5452300000000001 0.8731800000000002
0.5217850000000001 0.5683600000000000 0.6235149999999999
0.5026750000000001 0.5452300000000001 0.6231800000000000
0.5258950000000000 0.5452300000000001 0.6421850000000000
0.5117800000000001 0.7124800000000000 0.8857400000000001
0.5076750000000002 0.6893500000000000 0.8670700000000000
0.5308950000000001 0.6893500000000000 0.8860749999999998
0.5217850000000001 0.8183600000000000 0.6264850000000001
0.5258950000000001 0.7952300000000000 0.6078150000000000
0.5026750000000001 0.7952300000000000 0.6268199999999999
0.5117800000000000 0.9624800000000000 0.8642600000000000
0.5308950000000000 0.9393500000000000 0.8639250000000002
0.5076750000000001 0.9393500000000000 0.8829300000000000
0.7382199999999999 0.9624800000000000 0.6142600000000000
0.7423249999999999 0.9393500000000000 0.6329300000000000
0.7191050000000000 0.9393500000000000 0.6139250000000001
0.7617799999999999 0.9624800000000000 0.8857400000000001
0.7576749999999999 0.9393500000000000 0.8670700000000000
0.7808949999999998 0.9393500000000000 0.8860749999999998
0.9882199999999999 0.9624800000000000 0.6357400000000001
0.9691050000000000 0.9393500000000000 0.6360749999999998
0.9923249999999999 0.9393500000000000 0.6170700000000000
0.9782150000000001 0.8183600000000000 0.8735149999999999
0.9741050000000000 0.7952300000000000 0.8921850000000000
0.9973250000000000 0.7952300000000000 0.8731800000000002
0.9976700000000001 0.7034000000000000 0.6267000000000000
0.9742450000000000 0.7044750000000000 0.6076850000000000
0.9782150000000001 0.5683600000000000 0.8764850000000001
0.9973250000000000 0.5452300000000001 0.8768199999999999
0.9741050000000000 0.5452300000000001 0.8578150000000000
0.7717849999999999 0.5683600000000000 0.6264850000000001
0.7758950000000000 0.5452300000000001 0.6078150000000000
0.7526750000000000 0.5452300000000001 0.6268199999999999
0.7617800000000000 0.7124800000000000 0.8642600000000000
0.7808949999999999 0.6893500000000000 0.8639250000000002
0.7576750000000000 0.6893500000000000 0.8829300000000000
0.7717849999999999 0.8183600000000000 0.6235149999999999
0.7526750000000000 0.7952300000000000 0.6231800000000000
0.7758950000000000 0.7952300000000000 0.6421850000000000
0.7282150000000001 0.8183600000000000 0.8764850000000001
0.7473250000000000 0.7952300000000000 0.8768199999999999
0.7241050000000000 0.7952300000000000 0.8578150000000000
0.7382200000000000 0.7124800000000000 0.6357400000000001
0.7191050000000001 0.6893500000000000 0.6360749999999998
0.7423250000000000 0.6893500000000000 0.6170700000000000
0.8622249999999999 0.5310949999999999 0.9416700000000000
0.8827249999999999 0.5096299999999999 0.9372450000000000
0.8661650000000000 0.5096299999999999 0.9622700000000000
0.3732599999999999 0.3535650000000000 0.4867100000000000
0.1267400000000000 0.1464350000000000 0.4867100000000000
0.1267400000000000 0.3535650000000000 0.0132900000000000
0.3732600000000000 0.1464350000000000 0.0132900000000000
0.4867100000000000 0.3732600000000000 0.3535650000000000
0.4867100000000000 0.1267400000000000 0.1464350000000000
0.0132900000000000 0.1267400000000000 0.3535650000000000
0.0132900000000000 0.3732600000000000 0.1464350000000000
0.3535650000000000 0.4867100000000000 0.3732600000000000
0.1464350000000000 0.4867100000000000 0.1267400000000000
0.3535650000000000 0.0132900000000000 0.1267400000000000
0.1464350000000000 0.0132900000000000 0.3732600000000000
0.0132900000000000 0.3767400000000000 0.3964350000000000
0.0132900000000000 0.1232600000000000 0.1035650000000000
0.4867100000000000 0.1232600000000000 0.3964350000000000
0.4867100000000000 0.3767400000000000 0.1035650000000000
0.1464350000000000 0.2632900000000001 0.3767400000000000
0.3535650000000000 0.2632900000000000 0.1232600000000000
0.1464350000000000 0.2367100000000000 0.1232600000000000
0.3535650000000000 0.2367100000000000 0.3767400000000000
0.3732600000000000 0.1035650000000000 0.2367100000000000
0.1267400000000000 0.3964350000000000 0.2367100000000000
0.1267400000000000 0.1035650000000000 0.2632900000000000
0.3732600000000000 0.3964350000000000 0.2632900000000000
0.3767400000000000 0.1464350000000000 0.2632900000000000
0.1232600000000000 0.3535650000000000 0.2632900000000000
0.1232600000000000 0.1464350000000000 0.2367100000000000
0.3767400000000000 0.3535650000000000 0.2367100000000000
0.3964350000000000 0.0132900000000000 0.3767400000000000
0.1035650000000000 0.0132900000000000 0.1232600000000000
0.3964349999999999 0.4867100000000000 0.1232600000000000
0.1035650000000000 0.4867100000000000 0.3767400000000000
0.2367100000000000 0.3732600000000000 0.1035650000000000
0.2367100000000000 0.1267400000000000 0.3964350000000000
0.2632900000000000 0.1267400000000000 0.1035650000000000
0.2632900000000001 0.3732600000000000 0.3964350000000000
0.3767400000000000 0.3964350000000000 0.0132900000000000
0.1232600000000000 0.1035650000000000 0.0132900000000000
0.1232600000000000 0.3964349999999999 0.4867100000000000
0.3767400000000000 0.1035650000000000 0.4867100000000000
0.2632900000000001 0.3767400000000000 0.1464350000000000
0.2632900000000001 0.1232600000000000 0.3535650000000000
0.2367100000000000 0.1232600000000000 0.1464350000000000
0.2367100000000000 0.3767400000000000 0.3535650000000000
0.1035650000000000 0.2367100000000000 0.3732600000000000
0.3964350000000000 0.2367100000000000 0.1267400000000000
0.1035650000000000 0.2632900000000000 0.1267400000000000
0.3964350000000000 0.2632900000000001 0.3732600000000000
0.3732600000000000 0.3535650000000000 0.9867100000000000
0.1267400000000000 0.1464350000000000 0.9867100000000000
0.1267400000000000 0.3535650000000000 0.5132900000000000
0.3732599999999999 0.1464350000000000 0.5132900000000000
0.4867100000000000 0.3732600000000000 0.8535650000000000
0.4867100000000000 0.1267400000000000 0.6464350000000001
0.0132900000000000 0.1267400000000000 0.8535650000000000
0.0132900000000000 0.3732600000000000 0.6464350000000001
0.3535650000000000 0.4867100000000000 0.8732599999999998
0.1464350000000000 0.4867100000000000 0.6267400000000000
0.3535650000000000 0.0132900000000000 0.6267400000000000
0.1464350000000000 0.0132900000000000 0.8732599999999998
0.0132900000000000 0.3767400000000000 0.8964350000000001
0.0132900000000000 0.1232600000000000 0.6035650000000000
0.4867100000000000 0.1232600000000000 0.8964350000000001
0.4867100000000000 0.3767400000000000 0.6035650000000000
0.1464350000000000 0.2632900000000000 0.8767400000000002
0.3535650000000000 0.2632900000000000 0.6232600000000000
0.1464350000000000 0.2367100000000000 0.6232600000000000
0.3535650000000000 0.2367100000000000 0.8767400000000002
0.3732600000000000 0.1035650000000000 0.7367100000000000
0.1267400000000000 0.3964350000000000 0.7367100000000000
0.1267400000000000 0.1035650000000000 0.7632900000000000
0.3732600000000000 0.3964350000000000 0.7632900000000000
0.3767400000000000 0.1464350000000000 0.7632900000000000
0.1232600000000000 0.3535650000000000 0.7632900000000000
0.1232600000000000 0.1464350000000000 0.7367100000000000
0.3767400000000000 0.3535650000000000 0.7367100000000000
0.3964350000000000 0.0132900000000000 0.8767400000000002
0.1035650000000000 0.0132900000000000 0.6232600000000000
0.3964349999999999 0.4867100000000000 0.6232600000000000
0.1035650000000000 0.4867100000000000 0.8767400000000002
0.2367100000000000 0.3732600000000000 0.6035650000000000
0.2367100000000000 0.1267400000000000 0.8964350000000001
0.2632900000000000 0.1267400000000000 0.6035650000000000
0.2632900000000001 0.3732600000000000 0.8964350000000001
0.3767400000000000 0.3964349999999999 0.5132900000000000
0.1232600000000000 0.1035650000000000 0.5132900000000000
0.1232600000000000 0.3964350000000000 0.9867100000000000
0.3767400000000000 0.1035650000000000 0.9867100000000000
0.2632900000000000 0.3767400000000000 0.6464350000000001
0.2632900000000000 0.1232600000000000 0.8535650000000000
0.2367100000000000 0.1232600000000000 0.6464350000000001
0.2367100000000000 0.3767400000000000 0.8535650000000000
0.1035650000000000 0.2367100000000000 0.8732599999999998
0.3964350000000000 0.2367100000000000 0.6267400000000000
0.1035650000000000 0.2632900000000000 0.6267400000000000
0.3964350000000000 0.2632900000000000 0.8732599999999998
0.3732600000000000 0.8535650000000000 0.4867100000000000
0.1267400000000000 0.6464350000000001 0.4867100000000000
0.1267400000000000 0.8535650000000000 0.0132900000000000
0.3732600000000000 0.6464350000000001 0.0132900000000000
0.4867100000000000 0.8732599999999998 0.3535650000000000
0.4867100000000000 0.6267400000000000 0.1464350000000000
0.0132900000000000 0.6267400000000000 0.3535650000000000
0.0132900000000000 0.8732599999999998 0.1464350000000000
0.3535650000000000 0.9867100000000000 0.3732600000000000
0.1464350000000000 0.9867100000000000 0.1267400000000000
0.3535650000000000 0.5132900000000000 0.1267400000000000
0.1464350000000000 0.5132900000000000 0.3732600000000000
0.0132900000000000 0.8767400000000002 0.3964350000000000
0.0132900000000000 0.6232600000000000 0.1035650000000000
0.4867100000000000 0.6232600000000000 0.3964350000000000
0.4867100000000000 0.8767400000000002 0.1035650000000000
0.1464350000000000 0.7632900000000000 0.3767400000000000
0.3535650000000000 0.7632900000000000 0.1232600000000000
0.1464350000000000 0.7367100000000000 0.1232600000000000
0.3535650000000000 0.7367100000000000 0.3767400000000000
0.3732600000000000 0.6035650000000000 0.2367100000000000
0.1267400000000000 0.8964350000000001 0.2367100000000000
0.1267400000000000 0.6035650000000000 0.2632900000000000
0.3732600000000000 0.8964350000000001 0.2632900000000000
0.3767400000000000 0.6464350000000001 0.2632900000000000
0.1232600000000000 0.8535650000000000 0.2632900000000000
0.1232600000000000 0.6464350000000001 0.2367100000000000
0.3767400000000000 0.8535650000000000 0.2367100000000000
0.3964349999999999 0.5132900000000000 0.3767400000000000
0.1035650000000000 0.5132900000000000 0.1232600000000000
0.3964350000000000 0.9867100000000000 0.1232600000000000
0.1035650000000000 0.9867100000000000 0.3767400000000000
0.2367100000000000 0.8732599999999998 0.1035650000000000
0.2367100000000000 0.6267400000000000 0.3964350000000000
0.2632900000000000 0.6267400000000000 0.1035650000000000
0.2632900000000001 0.8732599999999998 0.3964350000000000
0.3767400000000000 0.8964350000000001 0.0132900000000000
0.1232600000000000 0.6035650000000000 0.0132900000000000
0.1232600000000000 0.8964350000000001 0.4867100000000000
0.3767400000000000 0.6035650000000000 0.4867100000000000
0.2632900000000000 0.8767400000000002 0.1464350000000000
0.2632900000000000 0.6232600000000000 0.3535650000000000
0.2367100000000000 0.6232600000000000 0.1464350000000000
0.2367100000000000 0.8767400000000002 0.3535650000000000
0.1035650000000000 0.7367100000000000 0.3732600000000000
0.3964350000000000 0.7367100000000000 0.1267400000000000
0.1035650000000000 0.7632900000000000 0.1267400000000000
0.3964350000000000 0.7632900000000000 0.3732600000000000
0.3732600000000000 0.8535649999999999 0.9867100000000000
0.1267400000000000 0.6464350000000000 0.9867100000000000
0.1267400000000000 0.8535650000000000 0.5132900000000000
0.3732600000000000 0.6464350000000001 0.5132900000000000
0.4867100000000000 0.8732599999999998 0.8535650000000000
0.4867100000000000 0.6267400000000000 0.6464350000000001
0.0132900000000000 0.6267400000000000 0.8535650000000000
0.0132900000000000 0.8732599999999998 0.6464350000000001
0.3535650000000001 0.9867100000000000 0.8732599999999998
0.1464350000000000 0.9867100000000000 0.6267400000000000
0.3535650000000000 0.5132900000000000 0.6267400000000000
0.1464350000000000 0.5132900000000000 0.8732599999999998
0.0132900000000000 0.8767400000000002 0.8964350000000001
0.0132900000000000 0.6232600000000000 0.6035650000000000
0.4867100000000000 0.6232600000000000 0.8964350000000001
0.4867100000000000 0.8767400000000002 0.6035650000000000
0.1464350000000000 0.7632900000000000 0.8767400000000002
0.3535650000000001 0.7632900000000000 0.6232600000000000
0.1464350000000000 0.7367100000000000 0.6232600000000000
0.3535650000000001 0.7367100000000000 0.8767400000000002
0.3732600000000000 0.6035650000000001 0.7367100000000000
0.1267400000000000 0.8964350000000001 0.7367100000000000
0.1267400000000000 0.6035650000000001 0.7632900000000000
0.3732600000000000 0.8964350000000001 0.7632900000000000
0.3767400000000000 0.6464350000000001 0.7632900000000000
0.1232600000000000 0.8535650000000000 0.7632900000000000
0.1232600000000000 0.6464350000000001 0.7367100000000000
0.3767400000000000 0.8535650000000000 0.7367100000000000
0.3964349999999999 0.5132900000000000 0.8767400000000002
0.1035650000000000 0.5132900000000000 0.6232600000000000
0.3964350000000000 0.9867100000000000 0.6232600000000000
0.1035650000000000 0.9867100000000000 0.8767400000000002
0.2367100000000000 0.8732599999999998 0.6035650000000000
0.2367100000000000 0.6267400000000000 0.8964350000000001
0.2632900000000000 0.6267400000000000 0.6035650000000000
0.2632900000000001 0.8732599999999998 0.8964350000000001
0.3767400000000000 0.8964350000000001 0.5132900000000000
0.1232600000000000 0.6035650000000000 0.5132900000000000
0.1232600000000000 0.8964350000000000 0.9867100000000000
0.3767400000000000 0.6035650000000000 0.9867100000000000
0.2632900000000000 0.8767400000000002 0.6464350000000001
0.2632900000000000 0.6232600000000000 0.8535650000000000
0.2367100000000000 0.6232600000000000 0.6464350000000001
0.2367100000000000 0.8767400000000002 0.8535650000000000
0.1035650000000000 0.7367100000000000 0.8732599999999998
0.3964350000000000 0.7367100000000000 0.6267400000000000
0.1035650000000000 0.7632900000000000 0.6267400000000000
0.3964350000000000 0.7632900000000000 0.8732599999999998
0.8732599999999998 0.3535650000000000 0.4867100000000000
0.6267400000000000 0.1464350000000000 0.4867100000000000
0.6267400000000000 0.3535650000000000 0.0132900000000000
0.8732599999999998 0.1464350000000000 0.0132900000000000
0.9867100000000000 0.3732600000000000 0.3535650000000000
0.9867100000000000 0.1267400000000000 0.1464350000000000
0.5132900000000000 0.1267400000000000 0.3535650000000000
0.5132900000000000 0.3732600000000000 0.1464350000000000
0.8535650000000000 0.4867100000000000 0.3732600000000000
0.6464350000000001 0.4867100000000000 0.1267400000000000
0.8535650000000000 0.0132900000000000 0.1267400000000000
0.6464350000000001 0.0132900000000000 0.3732600000000000
0.5132900000000000 0.3767400000000000 0.3964350000000000
0.5132900000000000 0.1232600000000000 0.1035650000000000
0.9867100000000000 0.1232600000000000 0.3964350000000000
0.9867100000000000 0.3767400000000000 0.1035650000000000
0.6464350000000001 0.2632900000000001 0.3767400000000000
0.8535650000000000 0.2632900000000000 0.1232600000000000
0.6464350000000001 0.2367100000000000 0.1232600000000000
0.8535650000000000 0.2367100000000000 0.3767400000000000
0.8732599999999998 0.1035650000000000 0.2367100000000000
0.6267400000000000 0.3964350000000000 0.2367100000000000
0.6267400000000000 0.1035650000000000 0.2632900000000000
0.8732599999999998 0.3964350000000000 0.2632900000000000
0.8767400000000002 0.1464350000000000 0.2632900000000000
0.6232600000000000 0.3535650000000000 0.2632900000000000
0.6232600000000000 0.1464350000000000 0.2367100000000000
0.8767400000000002 0.3535650000000000 0.2367100000000000
0.8964350000000001 0.0132900000000000 0.3767400000000000
0.6035650000000000 0.0132900000000000 0.1232600000000000
0.8964350000000001 0.4867100000000000 0.1232600000000000
0.6035650000000000 0.4867100000000000 0.3767400000000000
0.7367100000000000 0.3732600000000000 0.1035650000000000
0.7367100000000000 0.1267400000000000 0.3964350000000000
0.7632900000000000 0.1267400000000000 0.1035650000000000
0.7632900000000000 0.3732600000000000 0.3964350000000000
0.8767400000000002 0.3964350000000000 0.0132900000000000
0.6232600000000000 0.1035650000000000 0.0132900000000000
0.6232600000000000 0.3964349999999999 0.4867100000000000
0.8767400000000002 0.1035650000000000 0.4867100000000000
0.7632900000000000 0.3767400000000000 0.1464350000000000
0.7632900000000000 0.1232600000000000 0.3535650000000000
0.7367100000000000 0.1232600000000000 0.1464350000000000
0.7367100000000000 0.3767400000000000 0.3535650000000000
0.6035650000000000 0.2367100000000000 0.3732600000000000
0.8964350000000001 0.2367100000000000 0.1267400000000000
0.6035650000000000 0.2632900000000000 0.1267400000000000
0.8964350000000001 0.2632900000000001 0.3732600000000000
0.8732599999999997 0.3535650000000000 0.9867100000000000
0.6267399999999999 0.1464350000000000 0.9867100000000000
0.6267400000000000 0.3535650000000000 0.5132900000000000
0.8732599999999998 0.1464350000000000 0.5132900000000000
0.9867100000000000 0.3732600000000000 0.8535650000000000
0.9867100000000000 0.1267400000000000 0.6464350000000001
0.5132900000000000 0.1267400000000000 0.8535650000000000
0.5132900000000000 0.3732600000000000 0.6464350000000001
0.8535650000000000 0.4867100000000000 0.8732599999999998
0.6464350000000001 0.4867100000000000 0.6267400000000000
0.8535650000000000 0.0132900000000000 0.6267400000000000
0.6464350000000001 0.0132900000000000 0.8732599999999998
0.5132900000000000 0.3767400000000000 0.8964350000000001
0.5132900000000000 0.1232600000000000 0.6035650000000000
0.9867100000000000 0.1232600000000000 0.8964350000000001
0.9867100000000000 0.3767400000000000 0.6035650000000000
0.6464350000000001 0.2632900000000000 0.8767400000000002
0.8535650000000000 0.2632900000000000 0.6232600000000000
0.6464350000000001 0.2367100000000000 0.6232600000000000
0.8535650000000000 0.2367100000000000 0.8767400000000002
0.8732599999999998 0.1035650000000000 0.7367100000000000
0.6267400000000000 0.3964350000000000 0.7367100000000000
0.6267400000000000 0.1035650000000000 0.7632900000000000
0.8732599999999998 0.3964350000000000 0.7632900000000000
0.8767400000000002 0.1464350000000000 0.7632900000000000
0.6232600000000000 0.3535650000000000 0.7632900000000000
0.6232600000000000 0.1464350000000000 0.7367100000000000
0.8767400000000002 0.3535650000000000 0.7367100000000000
0.8964350000000001 0.0132900000000000 0.8767400000000002
0.6035650000000001 0.0132900000000000 0.6232600000000000
0.8964350000000001 0.4867100000000000 0.6232600000000000
0.6035650000000001 0.4867100000000000 0.8767400000000002
0.7367100000000000 0.3732600000000000 0.6035650000000000
0.7367100000000000 0.1267400000000000 0.8964350000000001
0.7632900000000000 0.1267400000000000 0.6035650000000000
0.7632900000000000 0.3732600000000000 0.8964350000000001
0.8767400000000002 0.3964349999999999 0.5132900000000000
0.6232600000000000 0.1035650000000000 0.5132900000000000
0.6232599999999999 0.3964350000000000 0.9867100000000000
0.8767400000000001 0.1035650000000000 0.9867100000000000
0.7632900000000000 0.3767400000000000 0.6464350000000001
0.7632900000000000 0.1232600000000000 0.8535650000000000
0.7367100000000000 0.1232600000000000 0.6464350000000001
0.7367100000000000 0.3767400000000000 0.8535650000000000
0.6035650000000001 0.2367100000000000 0.8732599999999998
0.8964350000000001 0.2367100000000000 0.6267400000000000
0.6035650000000001 0.2632900000000000 0.6267400000000000
0.8964350000000001 0.2632900000000000 0.8732599999999998
0.8732599999999998 0.8535650000000000 0.4867100000000000
0.6267400000000000 0.6464350000000001 0.4867100000000000
0.6267400000000000 0.8535650000000000 0.0132900000000000
0.8732599999999998 0.6464350000000001 0.0132900000000000
0.9867100000000000 0.8732599999999998 0.3535650000000000
0.9867100000000000 0.6267400000000000 0.1464350000000000
0.5132900000000000 0.6267400000000000 0.3535650000000000
0.5132900000000000 0.8732599999999998 0.1464350000000000
0.8535649999999999 0.9867100000000000 0.3732600000000000
0.6464350000000000 0.9867100000000000 0.1267400000000000
0.8535650000000000 0.5132900000000000 0.1267400000000000
0.6464350000000001 0.5132900000000000 0.3732600000000000
0.5132900000000000 0.8767400000000002 0.3964350000000000
0.5132900000000000 0.6232600000000000 0.1035650000000000
0.9867100000000000 0.6232600000000000 0.3964350000000000
0.9867100000000000 0.8767400000000002 0.1035650000000000
0.6464350000000001 0.7632900000000000 0.3767400000000000
0.8535650000000000 0.7632900000000000 0.1232600000000000
0.6464350000000001 0.7367100000000000 0.1232600000000000
0.8535650000000000 0.7367100000000000 0.3767400000000000
0.8732599999999998 0.6035650000000000 0.2367100000000000
0.6267400000000000 0.8964350000000001 0.2367100000000000
0.6267400000000000 0.6035650000000000 0.2632900000000000
0.8732599999999998 0.8964350000000001 0.2632900000000000
0.8767400000000002 0.6464350000000001 0.2632900000000000
0.6232600000000000 0.8535650000000000 0.2632900000000000
0.6232600000000000 0.6464350000000001 0.2367100000000000
0.8767400000000002 0.8535650000000000 0.2367100000000000
0.8964350000000001 0.5132900000000000 0.3767400000000000
0.6035650000000000 0.5132900000000000 0.1232600000000000
0.8964350000000000 0.9867100000000000 0.1232600000000000
0.6035650000000000 0.9867100000000000 0.3767400000000000
0.7367100000000000 0.8732599999999998 0.1035650000000000
0.7367100000000000 0.6267400000000000 0.3964350000000000
0.7632900000000000 0.6267400000000000 0.1035650000000000
0.7632900000000000 0.8732599999999998 0.3964350000000000
0.8767400000000002 0.8964350000000001 0.0132900000000000
0.6232600000000000 0.6035650000000000 0.0132900000000000
0.6232600000000000 0.8964350000000001 0.4867100000000000
0.8767400000000002 0.6035650000000000 0.4867100000000000
0.7632900000000000 0.8767400000000002 0.1464350000000000
0.7632900000000000 0.6232600000000000 0.3535650000000000
0.7367100000000000 0.6232600000000000 0.1464350000000000
0.7367100000000000 0.8767400000000002 0.3535650000000000
0.6035650000000001 0.7367100000000000 0.3732600000000000
0.8964350000000001 0.7367100000000000 0.1267400000000000
0.6035650000000001 0.7632900000000000 0.1267400000000000
0.8964350000000001 0.7632900000000000 0.3732600000000000
0.8732599999999997 0.8535649999999999 0.9867100000000000
0.6267399999999999 0.6464350000000000 0.9867100000000000
0.6267400000000000 0.8535650000000000 0.5132900000000000
0.8732599999999998 0.6464350000000001 0.5132900000000000
0.9867100000000000 0.8732599999999998 0.8535650000000000
0.9867100000000000 0.6267400000000000 0.6464350000000001
0.5132900000000001 0.6267400000000000 0.8535650000000000
0.5132900000000001 0.8732599999999998 0.6464350000000001
0.8535649999999999 0.9867100000000000 0.8732599999999998
0.6464350000000000 0.9867100000000000 0.6267400000000000
0.8535650000000000 0.5132900000000000 0.6267400000000000
0.6464350000000001 0.5132900000000000 0.8732599999999998
0.5132900000000001 0.8767400000000002 0.8964350000000001
0.5132900000000001 0.6232600000000000 0.6035650000000000
0.9867100000000000 0.6232600000000000 0.8964350000000001
0.9867100000000000 0.8767400000000002 0.6035650000000000
0.6464350000000001 0.7632900000000000 0.8767400000000002
0.8535650000000000 0.7632900000000000 0.6232600000000000
0.6464350000000001 0.7367100000000000 0.6232600000000000
0.8535650000000000 0.7367100000000000 0.8767400000000002
0.8732599999999998 0.6035650000000001 0.7367100000000000
0.6267400000000000 0.8964350000000001 0.7367100000000000
0.6267400000000000 0.6035650000000001 0.7632900000000000
0.8732599999999998 0.8964350000000001 0.7632900000000000
0.8767400000000002 0.6464350000000001 0.7632900000000000
0.6232600000000000 0.8535650000000000 0.7632900000000000
0.6232600000000000 0.6464350000000001 0.7367100000000000
0.8767400000000002 0.8535650000000000 0.7367100000000000
0.8964350000000001 0.5132900000000000 0.8767400000000002
0.6035650000000001 0.5132900000000000 0.6232600000000000
0.8964350000000000 0.9867100000000000 0.6232600000000000
0.6035650000000000 0.9867100000000000 0.8767400000000002
0.7367100000000000 0.8732599999999998 0.6035650000000000
0.7367100000000000 0.6267400000000000 0.8964350000000001
0.7632900000000000 0.6267400000000000 0.6035650000000000
0.7632900000000000 0.8732599999999998 0.8964350000000001
0.8767400000000002 0.8964350000000001 0.5132900000000000
0.6232600000000000 0.6035650000000000 0.5132900000000000
0.6232599999999999 0.8964350000000000 0.9867100000000000
0.8767400000000001 0.6035650000000000 0.9867100000000000
0.7632900000000000 0.8767400000000002 0.6464350000000001
0.7632900000000000 0.6232600000000000 0.8535650000000000
0.7367100000000000 0.6232600000000000 0.6464350000000001
0.7367100000000000 0.8767400000000002 0.8535650000000000
0.6035650000000001 0.7367100000000000 0.8732599999999998
0.8964350000000001 0.7367100000000000 0.6267400000000000
0.6035650000000001 0.7632900000000000 0.6267400000000000
0.8964350000000001 0.7632900000000000 0.8732599999999998
0.3702699999999999 0.3294250000000000 0.4746400000000001
0.1297300000000000 0.1705750000000000 0.4746400000000001
0.1297300000000000 0.3294250000000000 0.0253600000000000
0.3702700000000000 0.1705750000000000 0.0253600000000000
0.4746400000000001 0.3702700000000000 0.3294250000000000
0.4746400000000001 0.1297300000000000 0.1705750000000000
0.0253600000000000 0.1297300000000000 0.3294250000000000
0.0253600000000000 0.3702700000000000 0.1705750000000000
0.3294250000000000 0.4746400000000001 0.3702700000000000
0.1705750000000000 0.4746400000000001 0.1297300000000000
0.3294250000000000 0.0253600000000000 0.1297300000000000
0.1705750000000000 0.0253600000000000 0.3702700000000000
0.0253600000000000 0.3797300000000000 0.4205750000000000
0.0253600000000000 0.1202700000000000 0.0794250000000000
0.4746400000000001 0.1202700000000000 0.4205750000000000
0.4746400000000001 0.3797300000000000 0.0794250000000000
0.1705750000000000 0.2753600000000000 0.3797300000000000
0.3294250000000000 0.2753600000000000 0.1202700000000000
0.1705750000000000 0.2246400000000000 0.1202700000000000
0.3294250000000000 0.2246400000000000 0.3797300000000000
0.3702700000000000 0.0794250000000000 0.2246400000000000
0.1297300000000000 0.4205750000000000 0.2246400000000000
0.1297300000000000 0.0794250000000000 0.2753600000000000
0.3702700000000000 0.4205750000000000 0.2753600000000000
0.3797300000000000 0.1705749999999999 0.2753600000000000
0.1202700000000000 0.3294250000000000 0.2753600000000000
0.1202700000000000 0.1705750000000000 0.2246400000000000
0.3797300000000000 0.3294250000000000 0.2246400000000000
0.4205750000000000 0.0253600000000000 0.3797300000000000
0.0794250000000000 0.0253600000000000 0.1202700000000000
0.4205749999999999 0.4746400000000001 0.1202700000000000
0.0794250000000000 0.4746400000000001 0.3797300000000000
0.2246400000000000 0.3702700000000000 0.0794250000000000
0.2246400000000000 0.1297300000000000 0.4205750000000000
0.2753600000000000 0.1297300000000000 0.0794250000000000
0.2753600000000000 0.3702700000000000 0.4205750000000000
0.3797300000000000 0.4205750000000000 0.0253600000000000
0.1202700000000000 0.0794250000000000 0.0253600000000000
0.1202700000000000 0.4205749999999999 0.4746400000000001
0.3797300000000000 0.0794250000000000 0.4746400000000001
0.2753600000000000 0.3797300000000000 0.1705750000000000
0.2753600000000000 0.1202700000000000 0.3294250000000000
0.2246400000000000 0.1202700000000000 0.1705750000000000
0.2246400000000000 0.3797300000000000 0.3294250000000000
0.0794250000000000 0.2246400000000000 0.3702700000000000
0.4205750000000000 0.2246400000000000 0.1297300000000000
0.0794250000000000 0.2753600000000000 0.1297300000000000
0.4205750000000000 0.2753600000000000 0.3702700000000000
0.3702700000000000 0.3294250000000000 0.9746400000000000
0.1297300000000000 0.1705750000000000 0.9746400000000000
0.1297300000000000 0.3294250000000000 0.5253600000000000
0.3702699999999999 0.1705750000000000 0.5253600000000000
0.4746400000000001 0.3702700000000000 0.8294250000000000
0.4746400000000001 0.1297300000000000 0.6705750000000000
0.0253600000000000 0.1297300000000000 0.8294250000000000
0.0253600000000000 0.3702700000000000 0.6705750000000000
0.3294250000000000 0.4746400000000001 0.8702700000000001
0.1705750000000000 0.4746400000000001 0.6297299999999999
0.3294250000000000 0.0253600000000000 0.6297299999999999
0.1705750000000000 0.0253600000000000 0.8702700000000001
0.0253600000000000 0.3797300000000000 0.9205750000000000
0.0253600000000000 0.1202700000000000 0.5794250000000000
0.4746400000000001 0.1202700000000000 0.9205750000000000
0.4746400000000001 0.3797300000000000 0.5794250000000000
0.1705750000000000 0.2753600000000000 0.8797299999999999
0.3294250000000000 0.2753600000000000 0.6202700000000001
0.1705750000000000 0.2246400000000000 0.6202700000000001
0.3294250000000000 0.2246400000000000 0.8797299999999999
0.3702700000000000 0.0794250000000000 0.7246400000000000
0.1297300000000000 0.4205750000000000 0.7246400000000000
0.1297300000000000 0.0794250000000000 0.7753600000000002
0.3702700000000000 0.4205750000000000 0.7753600000000002
0.3797300000000000 0.1705750000000000 0.7753600000000002
0.1202700000000000 0.3294250000000000 0.7753600000000002
0.1202700000000000 0.1705750000000000 0.7246400000000000
0.3797300000000000 0.3294250000000000 0.7246400000000000
0.4205750000000000 0.0253600000000000 0.8797299999999999
0.0794250000000000 0.0253600000000000 0.6202700000000001
0.4205749999999999 0.4746400000000001 0.6202700000000001
0.0794250000000000 0.4746400000000001 0.8797299999999999
0.2246400000000000 0.3702700000000000 0.5794250000000000
0.2246400000000000 0.1297300000000000 0.9205750000000000
0.2753600000000000 0.1297300000000000 0.5794250000000000
0.2753600000000000 0.3702700000000000 0.9205750000000000
0.3797300000000000 0.4205749999999999 0.5253600000000000
0.1202700000000000 0.0794250000000000 0.5253600000000000
0.1202700000000000 0.4205750000000000 0.9746400000000000
0.3797300000000000 0.0794250000000000 0.9746400000000000
0.2753600000000000 0.3797300000000000 0.6705750000000000
0.2753600000000000 0.1202700000000000 0.8294250000000000
0.2246400000000000 0.1202700000000000 0.6705750000000000
0.2246400000000000 0.3797300000000000 0.8294250000000000
0.0794250000000000 0.2246400000000000 0.8702700000000001
0.4205750000000000 0.2246400000000000 0.6297299999999999
0.0794250000000000 0.2753600000000000 0.6297299999999999
0.4205750000000000 0.2753600000000000 0.8702700000000001
0.3702699999999999 0.8294250000000000 0.4746400000000001
0.1297300000000000 0.6705750000000000 0.4746400000000001
0.1297300000000000 0.8294250000000000 0.0253600000000000
0.3702700000000000 0.6705750000000000 0.0253600000000000
0.4746400000000001 0.8702700000000001 0.3294250000000000
0.4746400000000001 0.6297299999999999 0.1705750000000000
0.0253600000000000 0.6297299999999999 0.3294250000000000
0.0253600000000000 0.8702700000000001 0.1705750000000000
0.3294250000000000 0.9746400000000000 0.3702700000000000
0.1705750000000000 0.9746400000000000 0.1297300000000000
0.3294250000000000 0.5253600000000000 0.1297300000000000
0.1705750000000000 0.5253600000000000 0.3702700000000000
0.0253600000000000 0.8797299999999999 0.4205750000000000
0.0253600000000000 0.6202700000000001 0.0794250000000000
0.4746400000000001 0.6202700000000001 0.4205750000000000
0.4746400000000001 0.8797299999999999 0.0794250000000000
0.1705750000000000 0.7753600000000002 0.3797300000000000
0.3294250000000000 0.7753600000000002 0.1202700000000000
0.1705750000000000 0.7246400000000000 0.1202700000000000
0.3294250000000000 0.7246400000000000 0.3797300000000000
0.3702700000000000 0.5794250000000000 0.2246400000000000
0.1297300000000000 0.9205750000000000 0.2246400000000000
0.1297300000000000 0.5794250000000000 0.2753600000000000
0.3702700000000000 0.9205750000000000 0.2753600000000000
0.3797300000000000 0.6705750000000000 0.2753600000000000
0.1202700000000000 0.8294250000000000 0.2753600000000000
0.1202700000000000 0.6705750000000000 0.2246400000000000
0.3797300000000000 0.8294250000000000 0.2246400000000000
0.4205749999999999 0.5253600000000000 0.3797300000000000
0.0794250000000000 0.5253600000000000 0.1202700000000000
0.4205750000000000 0.9746400000000000 0.1202700000000000
0.0794250000000000 0.9746400000000000 0.3797300000000000
0.2246400000000000 0.8702700000000001 0.0794250000000000
0.2246400000000000 0.6297299999999999 0.4205750000000000
0.2753600000000000 0.6297299999999999 0.0794250000000000
0.2753600000000000 0.8702700000000001 0.4205750000000000
0.3797300000000000 0.9205750000000000 0.0253600000000000
0.1202700000000000 0.5794250000000000 0.0253600000000000
0.1202700000000000 0.9205750000000000 0.4746400000000001
0.3797300000000000 0.5794250000000000 0.4746400000000001
0.2753600000000000 0.8797299999999999 0.1705750000000000
0.2753600000000000 0.6202700000000001 0.3294250000000000
0.2246400000000000 0.6202700000000001 0.1705750000000000
0.2246400000000000 0.8797299999999999 0.3294250000000000
0.0794250000000000 0.7246400000000000 0.3702700000000000
0.4205750000000000 0.7246400000000000 0.1297300000000000
0.0794250000000000 0.7753600000000002 0.1297300000000000
0.4205750000000000 0.7753600000000002 0.3702700000000000
0.3702700000000000 0.8294249999999999 0.9746400000000000
0.1297300000000000 0.6705749999999999 0.9746400000000000
0.1297300000000000 0.8294250000000000 0.5253600000000000
0.3702699999999999 0.6705750000000000 0.5253600000000000
0.4746400000000001 0.8702700000000001 0.8294250000000000
0.4746400000000001 0.6297299999999999 0.6705750000000000
0.0253600000000000 0.6297299999999999 0.8294250000000000
0.0253600000000000 0.8702700000000001 0.6705750000000000
0.3294250000000000 0.9746400000000000 0.8702700000000001
0.1705750000000000 0.9746400000000000 0.6297299999999999
0.3294250000000000 0.5253600000000002 0.6297299999999999
0.1705750000000000 0.5253600000000002 0.8702700000000001
0.0253600000000000 0.8797299999999998 0.9205750000000000
0.0253600000000000 0.6202700000000001 0.5794250000000000
0.4746400000000001 0.6202700000000000 0.9205750000000000
0.4746400000000001 0.8797299999999999 0.5794250000000000
0.1705750000000000 0.7753600000000002 0.8797299999999999
0.3294250000000000 0.7753600000000002 0.6202700000000001
0.1705750000000000 0.7246400000000000 0.6202700000000001
0.3294250000000000 0.7246400000000000 0.8797299999999999
0.3702700000000000 0.5794250000000000 0.7246400000000000
0.1297300000000000 0.9205750000000000 0.7246400000000000
0.1297300000000000 0.5794250000000000 0.7753600000000002
0.3702700000000000 0.9205750000000000 0.7753600000000002
0.3797300000000001 0.6705750000000000 0.7753600000000002
0.1202700000000000 0.8294250000000000 0.7753600000000002
0.1202700000000000 0.6705750000000000 0.7246400000000000
0.3797300000000001 0.8294250000000000 0.7246400000000000
0.4205749999999999 0.5253600000000002 0.8797299999999999
0.0794250000000000 0.5253600000000002 0.6202700000000001
0.4205750000000000 0.9746400000000000 0.6202700000000001
0.0794250000000000 0.9746400000000000 0.8797299999999999
0.2246400000000000 0.8702700000000001 0.5794250000000000
0.2246400000000000 0.6297299999999998 0.9205750000000000
0.2753599999999999 0.6297299999999999 0.5794250000000000
0.2753600000000000 0.8702700000000000 0.9205750000000000
0.3797300000000000 0.9205750000000000 0.5253600000000000
0.1202700000000000 0.5794250000000000 0.5253600000000000
0.1202700000000000 0.9205749999999999 0.9746400000000000
0.3797300000000001 0.5794249999999999 0.9746400000000000
0.2753600000000000 0.8797299999999999 0.6705750000000000
0.2753599999999999 0.6202700000000001 0.8294250000000000
0.2246400000000000 0.6202700000000001 0.6705750000000000
0.2246400000000000 0.8797299999999999 0.8294250000000000
0.0794250000000000 0.7246400000000000 0.8702700000000001
0.4205750000000000 0.7246400000000000 0.6297299999999999
0.0794250000000000 0.7753600000000002 0.6297299999999999
0.4205750000000000 0.7753600000000002 0.8702700000000001
0.8702700000000001 0.3294250000000000 0.4746400000000001
0.6297299999999999 0.1705750000000000 0.4746400000000001
0.6297299999999999 0.3294250000000000 0.0253600000000000
0.8702700000000001 0.1705750000000000 0.0253600000000000
0.9746400000000000 0.3702700000000000 0.3294250000000000
0.9746400000000000 0.1297300000000000 0.1705750000000000
0.5253600000000000 0.1297300000000000 0.3294250000000000
0.5253600000000000 0.3702700000000000 0.1705750000000000
0.8294250000000000 0.4746400000000001 0.3702700000000000
0.6705750000000000 0.4746400000000001 0.1297300000000000
0.8294250000000000 0.0253600000000000 0.1297300000000000
0.6705750000000000 0.0253600000000000 0.3702700000000000
0.5253600000000000 0.3797300000000000 0.4205750000000000
0.5253600000000000 0.1202700000000000 0.0794250000000000
0.9746400000000000 0.1202700000000000 0.4205750000000000
0.9746400000000000 0.3797300000000000 0.0794250000000000
0.6705750000000000 0.2753600000000000 0.3797300000000000
0.8294250000000000 0.2753600000000000 0.1202700000000000
0.6705750000000000 0.2246400000000000 0.1202700000000000
0.8294250000000000 0.2246400000000000 0.3797300000000000
0.8702700000000001 0.0794250000000000 0.2246400000000000
0.6297299999999999 0.4205750000000000 0.2246400000000000
0.6297299999999999 0.0794250000000000 0.2753600000000000
0.8702700000000001 0.4205750000000000 0.2753600000000000
0.8797299999999999 0.1705749999999999 0.2753600000000000
0.6202700000000001 0.3294250000000000 0.2753600000000000
0.6202700000000001 0.1705750000000000 0.2246400000000000
0.8797299999999999 0.3294250000000000 0.2246400000000000
0.9205750000000000 0.0253600000000000 0.3797300000000000
0.5794250000000000 0.0253600000000000 0.1202700000000000
0.9205750000000000 0.4746400000000001 0.1202700000000000
0.5794250000000000 0.4746400000000001 0.3797300000000000
0.7246400000000000 0.3702700000000000 0.0794250000000000
0.7246400000000000 0.1297300000000000 0.4205750000000000
0.7753600000000002 0.1297300000000000 0.0794250000000000
0.7753600000000002 0.3702700000000000 0.4205750000000000
0.8797299999999999 0.4205750000000000 0.0253600000000000
0.6202700000000001 0.0794250000000000 0.0253600000000000
0.6202700000000001 0.4205749999999999 0.4746400000000001
0.8797299999999999 0.0794250000000000 0.4746400000000001
0.7753600000000002 0.3797300000000000 0.1705750000000000
0.7753600000000002 0.1202700000000000 0.3294250000000000
0.7246400000000000 0.1202700000000000 0.1705750000000000
0.7246400000000000 0.3797300000000000 0.3294250000000000
0.5794250000000000 0.2246400000000000 0.3702700000000000
0.9205750000000000 0.2246400000000000 0.1297300000000000
0.5794250000000000 0.2753600000000000 0.1297300000000000
0.9205750000000000 0.2753600000000000 0.3702700000000000
0.8702700000000000 0.3294250000000000 0.9746400000000000
0.6297299999999998 0.1705750000000000 0.9746400000000000
0.6297299999999999 0.3294250000000000 0.5253600000000000
0.8702700000000001 0.1705750000000000 0.5253600000000000
0.9746400000000000 0.3702700000000000 0.8294250000000000
0.9746400000000000 0.1297300000000000 0.6705750000000000
0.5253600000000002 0.1297300000000000 0.8294250000000000
0.5253600000000002 0.3702700000000000 0.6705750000000000
0.8294250000000000 0.4746400000000001 0.8702700000000001
0.6705750000000000 0.4746400000000001 0.6297299999999999
0.8294250000000000 0.0253600000000000 0.6297299999999999
0.6705750000000000 0.0253600000000000 0.8702700000000001
0.5253600000000000 0.3797300000000000 0.9205750000000000
0.5253600000000002 0.1202700000000000 0.5794250000000000
0.9746399999999998 0.1202700000000000 0.9205750000000000
0.9746400000000000 0.3797300000000000 0.5794250000000000
0.6705750000000000 0.2753600000000000 0.8797299999999999
0.8294250000000000 0.2753600000000000 0.6202700000000001
0.6705750000000000 0.2246400000000000 0.6202700000000001
0.8294250000000000 0.2246400000000000 0.8797299999999999
0.8702700000000001 0.0794250000000000 0.7246400000000000
0.6297299999999999 0.4205750000000000 0.7246400000000000
0.6297299999999999 0.0794250000000000 0.7753600000000002
0.8702700000000001 0.4205750000000000 0.7753600000000002
0.8797299999999999 0.1705750000000000 0.7753600000000002
0.6202700000000001 0.3294250000000000 0.7753600000000002
0.6202700000000001 0.1705750000000000 0.7246400000000000
0.8797299999999999 0.3294250000000000 0.7246400000000000
0.9205750000000000 0.0253600000000000 0.8797299999999999
0.5794250000000000 0.0253600000000000 0.6202700000000001
0.9205750000000000 0.4746400000000001 0.6202700000000001
0.5794250000000000 0.4746400000000001 0.8797299999999999
0.7246400000000000 0.3702700000000000 0.5794250000000000
0.7246399999999998 0.1297300000000000 0.9205750000000000
0.7753600000000002 0.1297300000000000 0.5794250000000000
0.7753600000000000 0.3702700000000000 0.9205750000000000
0.8797299999999999 0.4205749999999999 0.5253600000000000
0.6202700000000001 0.0794250000000000 0.5253600000000000
0.6202700000000000 0.4205750000000000 0.9746400000000000
0.8797299999999998 0.0794250000000000 0.9746400000000000
0.7753600000000002 0.3797300000000000 0.6705750000000000
0.7753600000000002 0.1202700000000000 0.8294250000000000
0.7246400000000000 0.1202700000000000 0.6705750000000000
0.7246400000000000 0.3797300000000000 0.8294250000000000
0.5794250000000000 0.2246400000000000 0.8702700000000001
0.9205750000000000 0.2246400000000000 0.6297299999999999
0.5794250000000000 0.2753600000000000 0.6297299999999999
0.9205750000000000 0.2753600000000000 0.8702700000000001
0.8702700000000001 0.8294250000000000 0.4746400000000001
0.6297299999999999 0.6705750000000000 0.4746400000000001
0.6297299999999999 0.8294250000000000 0.0253600000000000
0.8702700000000001 0.6705750000000000 0.0253600000000000
0.9746400000000000 0.8702700000000001 0.3294250000000000
0.9746400000000000 0.6297299999999999 0.1705750000000000
0.5253600000000002 0.6297299999999999 0.3294250000000000
0.5253600000000002 0.8702700000000001 0.1705750000000000
0.8294249999999999 0.9746400000000000 0.3702700000000000
0.6705749999999999 0.9746400000000000 0.1297300000000000
0.8294250000000000 0.5253600000000000 0.1297300000000000
0.6705750000000000 0.5253600000000000 0.3702700000000000
0.5253600000000002 0.8797299999999999 0.4205750000000000
0.5253600000000002 0.6202700000000001 0.0794250000000000
0.9746400000000000 0.6202700000000001 0.4205750000000000
0.9746400000000000 0.8797299999999999 0.0794250000000000
0.6705750000000000 0.7753600000000002 0.3797300000000000
0.8294250000000000 0.7753600000000002 0.1202700000000000
0.6705750000000000 0.7246400000000000 0.1202700000000000
0.8294250000000000 0.7246400000000000 0.3797300000000000
0.8702700000000001 0.5794250000000000 0.2246400000000000
0.6297299999999998 0.9205750000000000 0.2246400000000000
0.6297299999999999 0.5794250000000000 0.2753600000000000
0.8702700000000000 0.9205750000000000 0.2753600000000000
0.8797299999999999 0.6705750000000000 0.2753600000000000
0.6202700000000001 0.8294250000000000 0.2753600000000000
0.6202700000000001 0.6705750000000000 0.2246400000000000
0.8797299999999999 0.8294250000000000 0.2246400000000000
0.9205750000000000 0.5253600000000000 0.3797300000000000
0.5794250000000000 0.5253600000000000 0.1202700000000000
0.9205749999999999 0.9746400000000000 0.1202700000000000
0.5794249999999999 0.9746400000000000 0.3797300000000000
0.7246400000000000 0.8702700000000001 0.0794250000000000
0.7246400000000000 0.6297299999999999 0.4205750000000000
0.7753600000000002 0.6297299999999999 0.0794250000000000
0.7753600000000002 0.8702700000000001 0.4205750000000000
0.8797299999999998 0.9205750000000000 0.0253600000000000
0.6202700000000001 0.5794250000000000 0.0253600000000000
0.6202700000000000 0.9205750000000000 0.4746400000000001
0.8797299999999999 0.5794250000000000 0.4746400000000001
0.7753600000000002 0.8797299999999999 0.1705750000000000
0.7753600000000002 0.6202700000000001 0.3294250000000000
0.7246400000000000 0.6202700000000001 0.1705750000000000
0.7246400000000000 0.8797299999999999 0.3294250000000000
0.5794250000000000 0.7246400000000000 0.3702700000000000
0.9205750000000000 0.7246400000000000 0.1297300000000000
0.5794250000000000 0.7753600000000002 0.1297300000000000
0.9205750000000000 0.7753600000000002 0.3702700000000000
0.8702700000000000 0.8294249999999999 0.9746400000000000
0.6297299999999998 0.6705749999999999 0.9746400000000000
0.6297299999999999 0.8294250000000000 0.5253600000000000
0.8702700000000001 0.6705750000000000 0.5253600000000000
0.9746400000000000 0.8702700000000001 0.8294250000000000
0.9746400000000000 0.6297299999999999 0.6705750000000000
0.5253600000000002 0.6297299999999999 0.8294250000000000
0.5253600000000002 0.8702700000000001 0.6705750000000000
0.8294249999999999 0.9746400000000000 0.8702700000000001
0.6705749999999999 0.9746400000000000 0.6297299999999999
0.8294250000000000 0.5253600000000002 0.6297299999999999
0.6705750000000000 0.5253600000000002 0.8702700000000001
0.5253600000000000 0.8797299999999998 0.9205750000000000
0.5253600000000002 0.6202700000000001 0.5794250000000000
0.9746399999999998 0.6202700000000000 0.9205750000000000
0.9746400000000000 0.8797299999999999 0.5794250000000000
0.6705750000000000 0.7753600000000002 0.8797299999999999
0.8294250000000000 0.7753600000000002 0.6202700000000001
0.6705750000000000 0.7246400000000000 0.6202700000000001
0.8294250000000000 0.7246400000000000 0.8797299999999999
0.8702700000000001 0.5794250000000000 0.7246400000000000
0.6297299999999998 0.9205750000000000 0.7246400000000000
0.6297299999999999 0.5794250000000000 0.7753600000000002
0.8702700000000000 0.9205750000000000 0.7753600000000002
0.8797299999999999 0.6705750000000000 0.7753600000000002
0.6202700000000001 0.8294250000000000 0.7753600000000002
0.6202700000000001 0.6705750000000000 0.7246400000000000
0.8797299999999999 0.8294250000000000 0.7246400000000000
0.9205750000000000 0.5253600000000002 0.8797299999999999
0.5794250000000000 0.5253600000000002 0.6202700000000001
0.9205749999999999 0.9746400000000000 0.6202700000000001
0.5794250000000000 0.9746400000000000 0.8797299999999999
0.7246400000000000 0.8702700000000001 0.5794250000000000
0.7246399999999998 0.6297299999999998 0.9205750000000000
0.7753600000000002 0.6297299999999999 0.5794250000000000
0.7753600000000000 0.8702700000000000 0.9205750000000000
0.8797299999999998 0.9205750000000000 0.5253600000000000
0.6202700000000001 0.5794250000000000 0.5253600000000000
0.6202699999999999 0.9205749999999999 0.9746400000000000
0.8797299999999998 0.5794249999999999 0.9746400000000000
0.7753600000000002 0.8797299999999999 0.6705750000000000
0.7753600000000002 0.6202700000000001 0.8294250000000000
0.7246400000000000 0.6202700000000001 0.6705750000000000
0.7246400000000000 0.8797299999999999 0.8294250000000000
0.5794250000000001 0.7246400000000000 0.8702700000000001
0.9205750000000000 0.7246400000000000 0.6297299999999999
0.5794250000000001 0.7753600000000002 0.6297299999999999
0.9205750000000000 0.7753600000000002 0.8702700000000001
0.3754099999999999 0.3001450000000000 0.4797650000000000
0.1245900000000000 0.1998550000000000 0.4797650000000000
0.1245900000000000 0.3001450000000000 0.0202350000000000
0.3754100000000000 0.1998550000000000 0.0202350000000000
0.4797650000000000 0.3754100000000000 0.3001450000000000
0.4797650000000000 0.1245900000000000 0.1998550000000000
0.0202350000000000 0.1245900000000000 0.3001450000000000
0.0202350000000000 0.3754100000000000 0.1998550000000000
0.3001450000000000 0.4797650000000000 0.3754100000000000
0.1998550000000000 0.4797650000000000 0.1245900000000000
0.3001450000000000 0.0202350000000000 0.1245900000000000
0.1998550000000000 0.0202350000000000 0.3754100000000000
0.0202350000000000 0.3745900000000000 0.4498550000000000
0.0202350000000000 0.1254100000000000 0.0501450000000000
0.4797650000000000 0.1254100000000000 0.4498550000000000
0.4797650000000000 0.3745900000000000 0.0501450000000000
0.1998550000000000 0.2702350000000000 0.3745900000000000
0.3001450000000000 0.2702350000000000 0.1254100000000000
0.1998550000000000 0.2297650000000000 0.1254100000000000
0.3001450000000001 0.2297650000000000 0.3745900000000000
0.3754100000000000 0.0501450000000000 0.2297650000000000
0.1245900000000000 0.4498550000000000 0.2297650000000000
0.1245900000000000 0.0501450000000000 0.2702350000000000
0.3754100000000000 0.4498550000000000 0.2702350000000000
0.3745900000000000 0.1998550000000000 0.2702350000000000
0.1254100000000000 0.3001450000000000 0.2702350000000000
0.1254100000000000 0.1998550000000000 0.2297650000000000
0.3745900000000000 0.3001450000000000 0.2297650000000000
0.4498550000000000 0.0202350000000000 0.3745900000000000
0.0501450000000000 0.0202350000000000 0.1254100000000000
0.4498549999999999 0.4797650000000000 0.1254100000000000
0.0501450000000000 0.4797650000000000 0.3745900000000000
0.2297650000000000 0.3754100000000000 0.0501450000000000
0.2297650000000000 0.1245900000000000 0.4498550000000000
0.2702350000000000 0.1245900000000000 0.0501450000000000
0.2702350000000001 0.3754100000000000 0.4498550000000000
0.3745900000000000 0.4498550000000000 0.0202350000000000
0.1254100000000000 0.0501450000000000 0.0202350000000000
0.1254100000000000 0.4498549999999999 0.4797650000000000
0.3745900000000000 0.0501450000000000 0.4797650000000000
0.2702350000000000 0.3745900000000000 0.1998550000000000
0.2702350000000000 0.1254100000000000 0.3001450000000000
0.2297650000000000 0.1254100000000000 0.1998550000000000
0.2297650000000000 0.3745900000000000 0.3001450000000000
0.0501450000000000 0.2297650000000000 0.3754100000000000
0.4498550000000000 0.2297650000000000 0.1245900000000000
0.0501450000000000 0.2702350000000000 0.1245900000000000
0.4498550000000000 0.2702350000000000 0.3754100000000000
0.3754100000000000 0.3001450000000000 0.9797650000000000
0.1245900000000000 0.1998550000000000 0.9797650000000000
0.1245900000000000 0.3001450000000000 0.5202350000000000
0.3754099999999999 0.1998550000000000 0.5202350000000000
0.4797650000000001 0.3754100000000000 0.8001450000000001
0.4797650000000001 0.1245900000000000 0.6998549999999999
0.0202350000000000 0.1245900000000000 0.8001450000000001
0.0202350000000000 0.3754100000000000 0.6998549999999999
0.3001450000000000 0.4797650000000001 0.8754100000000000
0.1998550000000000 0.4797650000000001 0.6245900000000000
0.3001450000000000 0.0202350000000000 0.6245900000000000
0.1998550000000000 0.0202350000000000 0.8754100000000000
0.0202350000000000 0.3745900000000000 0.9498549999999999
0.0202350000000000 0.1254100000000000 0.5501450000000000
0.4797650000000001 0.1254100000000000 0.9498549999999999
0.4797649999999999 0.3745900000000000 0.5501450000000000
0.1998550000000000 0.2702350000000000 0.8745900000000000
0.3001450000000000 0.2702349999999999 0.6254100000000000
0.1998550000000000 0.2297650000000000 0.6254100000000000
0.3001450000000000 0.2297650000000000 0.8745900000000000
0.3754100000000000 0.0501450000000000 0.7297650000000000
0.1245900000000000 0.4498550000000000 0.7297650000000000
0.1245900000000000 0.0501450000000000 0.7702350000000001
0.3754100000000000 0.4498550000000000 0.7702350000000001
0.3745900000000000 0.1998550000000000 0.7702350000000001
0.1254100000000000 0.3001450000000000 0.7702350000000001
0.1254100000000000 0.1998550000000000 0.7297650000000000
0.3745900000000000 0.3001450000000000 0.7297650000000000
0.4498550000000000 0.0202350000000000 0.8745900000000000
0.0501450000000000 0.0202350000000000 0.6254100000000000
0.4498549999999999 0.4797650000000001 0.6254100000000000
0.0501450000000000 0.4797650000000001 0.8745900000000000
0.2297650000000000 0.3754099999999999 0.5501450000000000
0.2297650000000000 0.1245900000000000 0.9498549999999999
0.2702349999999999 0.1245900000000000 0.5501450000000000
0.2702350000000001 0.3754100000000000 0.9498549999999999
0.3745900000000000 0.4498549999999999 0.5202350000000000
0.1254100000000000 0.0501450000000000 0.5202350000000000
0.1254100000000000 0.4498550000000000 0.9797650000000000
0.3745900000000000 0.0501450000000000 0.9797650000000000
0.2702350000000000 0.3745900000000000 0.6998549999999999
0.2702349999999999 0.1254100000000000 0.8001450000000001
0.2297650000000000 0.1254100000000000 0.6998549999999999
0.2297650000000000 0.3745900000000000 0.8001450000000001
0.0501450000000000 0.2297650000000000 0.8754100000000000
0.4498550000000000 0.2297650000000000 0.6245900000000000
0.0501450000000000 0.2702349999999999 0.6245900000000000
0.4498550000000000 0.2702350000000000 0.8754100000000000
0.3754100000000000 0.8001450000000001 0.4797650000000000
0.1245900000000000 0.6998549999999999 0.4797650000000000
0.1245900000000000 0.8001450000000001 0.0202350000000000
0.3754100000000000 0.6998549999999999 0.0202350000000000
0.4797650000000001 0.8754100000000000 0.3001450000000000
0.4797650000000001 0.6245900000000000 0.1998550000000000
0.0202350000000000 0.6245900000000000 0.3001450000000000
0.0202350000000000 0.8754100000000000 0.1998550000000000
0.3001450000000001 0.9797650000000000 0.3754100000000000
0.1998550000000000 0.9797650000000000 0.1245900000000000
0.3001450000000000 0.5202350000000000 0.1245900000000000
0.1998550000000000 0.5202350000000000 0.3754100000000000
0.0202350000000000 0.8745900000000000 0.4498550000000000
0.0202350000000000 0.6254100000000000 0.0501450000000000
0.4797650000000001 0.6254100000000000 0.4498550000000000
0.4797650000000001 0.8745900000000000 0.0501450000000000
0.1998550000000000 0.7702350000000001 0.3745900000000000
0.3001450000000000 0.7702350000000001 0.1254100000000000
0.1998550000000000 0.7297650000000000 0.1254100000000000
0.3001450000000000 0.7297650000000000 0.3745900000000000
0.3754099999999999 0.5501450000000000 0.2297650000000000
0.1245900000000000 0.9498549999999999 0.2297650000000000
0.1245900000000000 0.5501450000000000 0.2702350000000000
0.3754100000000000 0.9498549999999999 0.2702350000000000
0.3745900000000000 0.6998549999999999 0.2702350000000000
0.1254100000000000 0.8001450000000001 0.2702350000000000
0.1254100000000000 0.6998549999999999 0.2297650000000000
0.3745900000000000 0.8001450000000001 0.2297650000000000
0.4498549999999999 0.5202350000000000 0.3745900000000000
0.0501450000000000 0.5202350000000000 0.1254100000000000
0.4498550000000000 0.9797650000000000 0.1254100000000000
0.0501450000000000 0.9797650000000000 0.3745900000000000
0.2297650000000000 0.8754100000000000 0.0501450000000000
0.2297650000000000 0.6245900000000000 0.4498550000000000
0.2702349999999999 0.6245900000000000 0.0501450000000000
0.2702350000000001 0.8754100000000000 0.4498550000000000
0.3745900000000000 0.9498549999999999 0.0202350000000000
0.1254100000000000 0.5501450000000000 0.0202350000000000
0.1254100000000000 0.9498549999999999 0.4797650000000000
0.3745899999999999 0.5501450000000000 0.4797650000000000
0.2702350000000000 0.8745900000000000 0.1998550000000000
0.2702350000000000 0.6254100000000000 0.3001450000000000
0.2297650000000000 0.6254100000000000 0.1998550000000000
0.2297650000000000 0.8745900000000000 0.3001450000000000
0.0501450000000000 0.7297650000000000 0.3754100000000000
0.4498550000000000 0.7297650000000000 0.1245900000000000
0.0501450000000000 0.7702350000000001 0.1245900000000000
0.4498550000000000 0.7702350000000001 0.3754100000000000
0.3754100000000000 0.8001450000000000 0.9797650000000000
0.1245900000000000 0.6998549999999998 0.9797650000000000
0.1245900000000000 0.8001450000000001 0.5202350000000000
0.3754100000000000 0.6998549999999999 0.5202350000000000
0.4797650000000001 0.8754100000000000 0.8001450000000001
0.4797650000000001 0.6245900000000000 0.6998549999999999
0.0202350000000000 0.6245900000000000 0.8001450000000001
0.0202350000000000 0.8754100000000000 0.6998549999999999
0.3001450000000000 0.9797650000000000 0.8754100000000000
0.1998550000000000 0.9797650000000000 0.6245900000000000
0.3001449999999999 0.5202350000000001 0.6245900000000000
0.1998550000000000 0.5202350000000001 0.8754100000000000
0.0202350000000000 0.8745899999999999 0.9498549999999999
0.0202350000000000 0.6254100000000000 0.5501450000000000
0.4797650000000001 0.6254099999999999 0.9498549999999999
0.4797650000000000 0.8745900000000000 0.5501450000000000
0.1998550000000000 0.7702350000000001 0.8745900000000000
0.3001449999999999 0.7702350000000001 0.6254100000000000
0.1998550000000000 0.7297650000000000 0.6254100000000000
0.3001450000000000 0.7297650000000000 0.8745900000000000
0.3754100000000000 0.5501450000000001 0.7297650000000000
0.1245900000000000 0.9498549999999999 0.7297650000000000
0.1245900000000000 0.5501450000000001 0.7702350000000001
0.3754100000000000 0.9498549999999999 0.7702350000000001
0.3745900000000000 0.6998549999999999 0.7702350000000001
0.1254100000000000 0.8001450000000001 0.7702350000000001
0.1254100000000000 0.6998549999999999 0.7297650000000000
0.3745900000000000 0.8001450000000001 0.7297650000000000
0.4498549999999999 0.5202350000000001 0.8745900000000000
0.0501450000000000 0.5202350000000001 0.6254100000000000
0.4498550000000001 0.9797650000000000 0.6254100000000000
0.0501450000000000 0.9797650000000000 0.8745900000000000
0.2297650000000000 0.8754100000000000 0.5501450000000000
0.2297650000000000 0.6245899999999999 0.9498549999999999
0.2702349999999999 0.6245900000000000 0.5501450000000000
0.2702350000000000 0.8754099999999999 0.9498549999999999
0.3745900000000000 0.9498549999999999 0.5202350000000000
0.1254100000000000 0.5501450000000000 0.5202350000000000
0.1254100000000000 0.9498549999999998 0.9797650000000000
0.3745900000000000 0.5501450000000000 0.9797650000000000
0.2702350000000000 0.8745900000000000 0.6998549999999999
0.2702349999999999 0.6254100000000000 0.8001450000000001
0.2297650000000000 0.6254100000000000 0.6998549999999999
0.2297650000000000 0.8745900000000000 0.8001450000000001
0.0501450000000000 0.7297650000000000 0.8754100000000000
0.4498550000000001 0.7297650000000000 0.6245900000000000
0.0501450000000000 0.7702350000000001 0.6245900000000000
0.4498550000000001 0.7702350000000001 0.8754100000000000
0.8754100000000000 0.3001450000000000 0.4797650000000000
0.6245900000000000 0.1998550000000000 0.4797650000000000
0.6245900000000000 0.3001450000000000 0.0202350000000000
0.8754100000000000 0.1998550000000000 0.0202350000000000
0.9797650000000000 0.3754100000000000 0.3001450000000000
0.9797650000000000 0.1245900000000000 0.1998550000000000
0.5202350000000000 0.1245900000000000 0.3001450000000000
0.5202350000000000 0.3754100000000000 0.1998550000000000
0.8001450000000001 0.4797650000000000 0.3754100000000000
0.6998549999999999 0.4797650000000000 0.1245900000000000
0.8001450000000001 0.0202350000000000 0.1245900000000000
0.6998549999999999 0.0202350000000000 0.3754100000000000
0.5202350000000000 0.3745900000000000 0.4498550000000000
0.5202350000000000 0.1254100000000000 0.0501450000000000
0.9797650000000000 0.1254100000000000 0.4498550000000000
0.9797650000000000 0.3745900000000000 0.0501450000000000
0.6998549999999999 0.2702350000000000 0.3745900000000000
0.8001450000000001 0.2702350000000000 0.1254100000000000
0.6998549999999999 0.2297650000000000 0.1254100000000000
0.8001450000000001 0.2297650000000000 0.3745900000000000
0.8754100000000000 0.0501450000000000 0.2297650000000000
0.6245900000000000 0.4498550000000000 0.2297650000000000
0.6245900000000000 0.0501450000000000 0.2702350000000000
0.8754100000000000 0.4498550000000000 0.2702350000000000
0.8745900000000000 0.1998550000000000 0.2702350000000000
0.6254100000000000 0.3001450000000000 0.2702350000000000
0.6254100000000000 0.1998550000000000 0.2297650000000000
0.8745900000000000 0.3001450000000000 0.2297650000000000
0.9498549999999999 0.0202350000000000 0.3745900000000000
0.5501450000000000 0.0202350000000000 0.1254100000000000
0.9498549999999999 0.4797650000000000 0.1254100000000000
0.5501450000000000 0.4797650000000000 0.3745900000000000
0.7297650000000000 0.3754100000000000 0.0501450000000000
0.7297650000000000 0.1245900000000000 0.4498550000000000
0.7702350000000001 0.1245900000000000 0.0501450000000000
0.7702350000000001 0.3754100000000000 0.4498550000000000
0.8745900000000000 0.4498550000000000 0.0202350000000000
0.6254100000000000 0.0501450000000000 0.0202350000000000
0.6254100000000000 0.4498549999999999 0.4797650000000000
0.8745900000000000 0.0501450000000000 0.4797650000000000
0.7702350000000001 0.3745900000000000 0.1998550000000000
0.7702350000000001 0.1254100000000000 0.3001450000000000
0.7297650000000000 0.1254100000000000 0.1998550000000000
0.7297650000000000 0.3745900000000000 0.3001450000000000
0.5501450000000000 0.2297650000000000 0.3754100000000000
0.9498549999999999 0.2297650000000000 0.1245900000000000
0.5501450000000000 0.2702350000000000 0.1245900000000000
0.9498549999999999 0.2702350000000000 0.3754100000000000
0.8754099999999999 0.3001450000000000 0.9797650000000000
0.6245899999999999 0.1998550000000000 0.9797650000000000
0.6245900000000000 0.3001450000000000 0.5202350000000000
0.8754100000000000 0.1998550000000000 0.5202350000000000
0.9797650000000000 0.3754100000000000 0.8001450000000001
0.9797650000000000 0.1245900000000000 0.6998549999999999
0.5202350000000001 0.1245900000000000 0.8001450000000001
0.5202350000000001 0.3754100000000000 0.6998549999999999
0.8001450000000001 0.4797650000000001 0.8754100000000000
0.6998549999999999 0.4797650000000001 0.6245900000000000
0.8001450000000001 0.0202350000000000 0.6245900000000000
0.6998549999999999 0.0202350000000000 0.8754100000000000
0.5202350000000000 0.3745900000000000 0.9498549999999999
0.5202350000000000 0.1254100000000000 0.5501450000000000
0.9797649999999999 0.1254100000000000 0.9498549999999999
0.9797650000000000 0.3745900000000000 0.5501450000000000
0.6998549999999999 0.2702350000000000 0.8745900000000000
0.8001450000000001 0.2702349999999999 0.6254100000000000
0.6998549999999999 0.2297650000000000 0.6254100000000000
0.8001450000000001 0.2297650000000000 0.8745900000000000
0.8754100000000000 0.0501450000000000 0.7297650000000000
0.6245900000000000 0.4498550000000000 0.7297650000000000
0.6245900000000000 0.0501450000000000 0.7702350000000001
0.8754100000000000 0.4498550000000000 0.7702350000000001
0.8745900000000000 0.1998550000000000 0.7702350000000001
0.6254100000000000 0.3001450000000000 0.7702350000000001
0.6254100000000000 0.1998550000000000 0.7297650000000000
0.8745900000000000 0.3001450000000000 0.7297650000000000
0.9498549999999999 0.0202350000000000 0.8745900000000000
0.5501450000000001 0.0202350000000000 0.6254100000000000
0.9498549999999999 0.4797650000000001 0.6254100000000000
0.5501450000000001 0.4797650000000001 0.8745900000000000
0.7297650000000000 0.3754099999999999 0.5501450000000000
0.7297649999999999 0.1245900000000000 0.9498549999999999
0.7702350000000001 0.1245900000000000 0.5501450000000000
0.7702350000000000 0.3754100000000000 0.9498549999999999
0.8745900000000000 0.4498549999999999 0.5202350000000000
0.6254100000000000 0.0501450000000000 0.5202350000000000
0.6254099999999999 0.4498550000000000 0.9797650000000000
0.8745899999999999 0.0501450000000000 0.9797650000000000
0.7702350000000001 0.3745900000000000 0.6998549999999999
0.7702350000000001 0.1254100000000000 0.8001450000000001
0.7297650000000000 0.1254100000000000 0.6998549999999999
0.7297650000000000 0.3745900000000000 0.8001450000000001
0.5501450000000001 0.2297650000000000 0.8754100000000000
0.9498549999999999 0.2297650000000000 0.6245900000000000
0.5501450000000001 0.2702349999999999 0.6245900000000000
0.9498549999999999 0.2702350000000000 0.8754100000000000
0.8754100000000000 0.8001450000000001 0.4797650000000000
0.6245900000000000 0.6998549999999999 0.4797650000000000
0.6245900000000000 0.8001450000000001 0.0202350000000000
0.8754100000000000 0.6998549999999999 0.0202350000000000
0.9797650000000000 0.8754100000000000 0.3001450000000000
0.9797650000000000 0.6245900000000000 0.1998550000000000
0.5202350000000001 0.6245900000000000 0.3001450000000000
0.5202350000000001 0.8754100000000000 0.1998550000000000
0.8001450000000000 0.9797650000000000 0.3754100000000000
0.6998549999999998 0.9797650000000000 0.1245900000000000
0.8001450000000001 0.5202350000000000 0.1245900000000000
0.6998549999999999 0.5202350000000000 0.3754100000000000
0.5202350000000001 0.8745900000000000 0.4498550000000000
0.5202350000000001 0.6254100000000000 0.0501450000000000
0.9797650000000000 0.6254100000000000 0.4498550000000000
0.9797650000000000 0.8745900000000000 0.0501450000000000
0.6998549999999999 0.7702350000000001 0.3745900000000000
0.8001450000000001 0.7702350000000001 0.1254100000000000
0.6998549999999999 0.7297650000000000 0.1254100000000000
0.8001450000000001 0.7297650000000000 0.3745900000000000
0.8754100000000000 0.5501450000000000 0.2297650000000000
0.6245899999999999 0.9498549999999999 0.2297650000000000
0.6245900000000000 0.5501450000000000 0.2702350000000000
0.8754099999999999 0.9498549999999999 0.2702350000000000
0.8745900000000000 0.6998549999999999 0.2702350000000000
0.6254100000000000 0.8001450000000001 0.2702350000000000
0.6254100000000000 0.6998549999999999 0.2297650000000000
0.8745900000000000 0.8001450000000001 0.2297650000000000
0.9498549999999999 0.5202350000000000 0.3745900000000000
0.5501450000000000 0.5202350000000000 0.1254100000000000
0.9498549999999998 0.9797650000000000 0.1254100000000000
0.5501450000000000 0.9797650000000000 0.3745900000000000
0.7297650000000000 0.8754100000000000 0.0501450000000000
0.7297650000000000 0.6245900000000000 0.4498550000000000
0.7702350000000001 0.6245900000000000 0.0501450000000000
0.7702350000000001 0.8754100000000000 0.4498550000000000
0.8745899999999999 0.9498549999999999 0.0202350000000000
0.6254100000000000 0.5501450000000000 0.0202350000000000
0.6254099999999999 0.9498549999999999 0.4797650000000000
0.8745900000000000 0.5501450000000000 0.4797650000000000
0.7702350000000001 0.8745900000000000 0.1998550000000000
0.7702350000000001 0.6254100000000000 0.3001450000000000
0.7297650000000000 0.6254100000000000 0.1998550000000000
0.7297650000000000 0.8745900000000000 0.3001450000000000
0.5501450000000001 0.7297650000000000 0.3754100000000000
0.9498549999999999 0.7297650000000000 0.1245900000000000
0.5501450000000001 0.7702350000000001 0.1245900000000000
0.9498549999999999 0.7702350000000001 0.3754100000000000
0.8754099999999999 0.8001450000000000 0.9797650000000000
0.6245899999999999 0.6998549999999998 0.9797650000000000
0.6245900000000000 0.8001450000000001 0.5202350000000000
0.8754100000000000 0.6998549999999999 0.5202350000000000
0.9797650000000000 0.8754100000000000 0.8001450000000001
0.9797650000000000 0.6245900000000000 0.6998549999999999
0.5202350000000001 0.6245900000000000 0.8001450000000001
0.5202350000000001 0.8754100000000000 0.6998549999999999
0.8001450000000000 0.9797650000000000 0.8754100000000000
0.6998549999999998 0.9797650000000000 0.6245900000000000
0.8001450000000001 0.5202350000000001 0.6245900000000000
0.6998549999999999 0.5202350000000001 0.8754100000000000
0.5202350000000000 0.8745899999999999 0.9498549999999999
0.5202350000000001 0.6254100000000000 0.5501450000000000
0.9797649999999999 0.6254099999999999 0.9498549999999999
0.9797650000000000 0.8745900000000000 0.5501450000000000
0.6998549999999999 0.7702350000000001 0.8745900000000000
0.8001450000000001 0.7702350000000001 0.6254100000000000
0.6998549999999999 0.7297650000000000 0.6254100000000000
0.8001450000000001 0.7297650000000000 0.8745900000000000
0.8754100000000000 0.5501450000000001 0.7297650000000000
0.6245899999999999 0.9498549999999999 0.7297650000000000
0.6245900000000000 0.5501450000000001 0.7702350000000001
0.8754099999999999 0.9498549999999999 0.7702350000000001
0.8745900000000000 0.6998549999999999 0.7702350000000001
0.6254100000000000 0.8001450000000001 0.7702350000000001
0.6254100000000000 0.6998549999999999 0.7297650000000000
0.8745900000000000 0.8001450000000001 0.7297650000000000
0.9498549999999999 0.5202350000000001 0.8745900000000000
0.5501450000000001 0.5202350000000001 0.6254100000000000
0.9498549999999998 0.9797650000000000 0.6254100000000000
0.5501450000000000 0.9797650000000000 0.8745900000000000
0.7297650000000000 0.8754100000000000 0.5501450000000000
0.7297649999999999 0.6245899999999999 0.9498549999999999
0.7702350000000001 0.6245900000000000 0.5501450000000000
0.7702350000000000 0.8754099999999999 0.9498549999999999
0.8745899999999999 0.9498549999999999 0.5202350000000000
0.6254100000000000 0.5501450000000000 0.5202350000000000
0.6254099999999998 0.9498549999999998 0.9797650000000000
0.8745899999999999 0.5501450000000000 0.9797650000000000
0.7702350000000001 0.8745900000000000 0.6998549999999999
0.7702350000000001 0.6254100000000000 0.8001450000000001
0.7297650000000000 0.6254100000000000 0.6998549999999999
0.7297650000000000 0.8745900000000000 0.8001450000000001
0.5501450000000001 0.7297650000000000 0.8754100000000000
0.9498549999999999 0.7297650000000000 0.6245900000000000
0.5501450000000001 0.7702350000000001 0.6245900000000000
0.9498549999999999 0.7702350000000001 0.8754100000000000
0.2716450000000000 0.3719350000000000 0.0872500000000000
0.2283550000000000 0.3780650000000000 0.1627500000000000
0.2716450000000000 0.1219350000000000 0.1627500000000000
0.2283550000000000 0.1280650000000000 0.0872500000000000
0.2716450000000001 0.3780650000000000 0.3372500000000000
0.2283550000000000 0.3719350000000000 0.4127500000000000
0.2283550000000000 0.1219350000000000 0.3372500000000000
0.2716450000000000 0.1280650000000000 0.4127500000000000
0.4783550000000000 0.3719350000000000 0.1627500000000000
0.4783550000000000 0.1219350000000000 0.0872500000000000
0.4783550000000000 0.1280650000000000 0.3372500000000000
0.4783550000000000 0.3780650000000000 0.4127500000000000
0.0216450000000000 0.1219350000000000 0.4127500000000000
0.0216450000000000 0.3719350000000000 0.3372500000000000
0.0216450000000000 0.3780650000000000 0.0872500000000000
0.0216450000000000 0.1280650000000000 0.1627500000000000
0.1219350000000000 0.4127500000000000 0.0216450000000000
0.1280650000000000 0.1627500000000000 0.0216450000000000
0.3780650000000000 0.0872500000000000 0.0216450000000000
0.3719350000000000 0.3372500000000000 0.0216450000000000
0.1280650000000000 0.4127500000000000 0.2716450000000000
0.3780650000000000 0.3372500000000000 0.2716450000000000
0.1219350000000000 0.3372500000000000 0.2283550000000000
0.3780650000000000 0.4127499999999999 0.4783550000000000
0.3719350000000000 0.1627500000000000 0.4783550000000000
0.1219350000000000 0.0872500000000000 0.4783550000000000
0.0872500000000000 0.2716450000000000 0.3719350000000000
0.1622950000000000 0.2275200000000000 0.3780300000000000
0.1280650000000000 0.3372500000000000 0.4783550000000000
0.0872500000000000 0.0216450000000000 0.3780650000000000
0.1627500000000000 0.0216450000000000 0.1280650000000000
0.4127500000000000 0.0216450000000000 0.1219350000000000
0.3372500000000000 0.0216450000000000 0.3719350000000000
0.4127499999999999 0.4783550000000000 0.3780650000000000
0.3372500000000000 0.4783550000000000 0.1280650000000000
0.1627500000000000 0.4783550000000000 0.3719350000000000
0.0872500000000000 0.4783550000000000 0.1219350000000000
0.4127500000000000 0.2716450000000000 0.1280650000000000
0.3377050000000000 0.2275200000000000 0.1219700000000000
0.3377050000000000 0.2724800000000000 0.3780300000000000
0.4127500000000000 0.2283550000000000 0.3719350000000000
0.0872500000000000 0.2283550000000000 0.1280650000000000
0.1622950000000000 0.2724800000000000 0.1219700000000000
0.3780650000000000 0.1627500000000000 0.2283550000000000
0.3719350000000000 0.0872500000000000 0.2716450000000000
0.3719350000000000 0.4127500000000000 0.2283550000000000
0.1219350000000000 0.1627500000000000 0.2716450000000000
0.1280650000000000 0.0872500000000000 0.2283550000000000
0.2716450000000000 0.3719350000000000 0.5872500000000000
0.2283550000000000 0.3780650000000000 0.6627500000000000
0.2716450000000000 0.1219350000000000 0.6627500000000000
0.2283550000000000 0.1280650000000000 0.5872500000000000
0.2716450000000000 0.3780650000000000 0.8372500000000000
0.2283550000000000 0.3719350000000000 0.9127500000000000
0.2283550000000000 0.1219350000000000 0.8372500000000000
0.2716450000000000 0.1280650000000000 0.9127500000000000
0.4783550000000000 0.3719350000000000 0.6627500000000000
0.4783550000000000 0.1219350000000000 0.5872500000000000
0.4783550000000000 0.1280650000000000 0.8372500000000000
0.4783550000000000 0.3780650000000000 0.9127500000000000
0.0216450000000000 0.1219350000000000 0.9127500000000000
0.0216450000000000 0.3719350000000000 0.8372500000000000
0.0216450000000000 0.3780650000000000 0.5872500000000000
0.0216450000000000 0.1280650000000000 0.6627500000000000
0.1219350000000000 0.4127499999999999 0.5216450000000000
0.1280650000000000 0.1627500000000000 0.5216450000000000
0.3780650000000000 0.0872500000000000 0.5216450000000000
0.3719350000000000 0.3372500000000000 0.5216450000000000
0.1280650000000000 0.4127500000000000 0.7716450000000000
0.3780650000000000 0.3372500000000000 0.7716450000000000
0.1219350000000000 0.3372500000000000 0.7283550000000000
0.3780650000000000 0.4127500000000000 0.9783550000000000
0.3719350000000000 0.1627500000000000 0.9783550000000000
0.1219350000000000 0.0872500000000000 0.9783550000000000
0.0872500000000000 0.2716450000000000 0.8719350000000000
0.1622950000000000 0.2275200000000000 0.8780300000000000
0.1280650000000000 0.3372500000000000 0.9783550000000000
0.0872500000000000 0.0216450000000000 0.8780650000000000
0.1627500000000000 0.0216450000000000 0.6280650000000000
0.4127500000000000 0.0216450000000000 0.6219350000000000
0.3372500000000000 0.0216450000000000 0.8719350000000000
0.4127500000000000 0.4783550000000000 0.8780650000000000
0.3372500000000000 0.4783550000000000 0.6280650000000000
0.1627500000000000 0.4783550000000000 0.8719350000000000
0.0872500000000000 0.4783550000000000 0.6219350000000000
0.4127500000000000 0.2716450000000000 0.6280650000000000
0.3377050000000000 0.2275200000000000 0.6219700000000000
0.3377050000000000 0.2724800000000000 0.8780300000000000
0.4127500000000000 0.2283550000000000 0.8719350000000000
0.0872500000000000 0.2283550000000000 0.6280650000000000
0.1622950000000000 0.2724799999999999 0.6219700000000000
0.3780650000000000 0.1627500000000000 0.7283550000000000
0.3719350000000000 0.0872500000000000 0.7716450000000000
0.3719350000000000 0.4127500000000000 0.7283550000000000
0.1219350000000000 0.1627500000000000 0.7716450000000000
0.1280650000000000 0.0872500000000000 0.7283550000000000
0.2716450000000000 0.8719350000000000 0.0872500000000000
0.2283550000000000 0.8780650000000000 0.1627500000000000
0.2716450000000000 0.6219350000000000 0.1627500000000000
0.2283550000000000 0.6280650000000000 0.0872500000000000
0.2716450000000001 0.8780650000000000 0.3372500000000000
0.2283550000000000 0.8719350000000000 0.4127500000000000
0.2283550000000000 0.6219350000000000 0.3372500000000000
0.2716450000000000 0.6280650000000000 0.4127500000000000
0.4783550000000000 0.8719350000000000 0.1627500000000000
0.4783550000000000 0.6219350000000000 0.0872500000000000
0.4783550000000000 0.6280650000000000 0.3372500000000000
0.4783550000000000 0.8780650000000000 0.4127500000000000
0.0216450000000000 0.6219350000000000 0.4127500000000000
0.0216450000000000 0.8719350000000000 0.3372500000000000
0.0216450000000000 0.8780650000000000 0.0872500000000000
0.0216450000000000 0.6280650000000000 0.1627500000000000
0.1219350000000000 0.9127500000000000 0.0216450000000000
0.1280650000000000 0.6627500000000000 0.0216450000000000
0.3780650000000000 0.5872500000000000 0.0216450000000000
0.3719350000000000 0.8372500000000000 0.0216450000000000
0.1280650000000000 0.9127500000000000 0.2716450000000000
0.3780650000000000 0.8372500000000000 0.2716450000000000
0.1219350000000000 0.8372500000000000 0.2283550000000000
0.3780650000000000 0.9127500000000000 0.4783550000000000
0.3719350000000000 0.6627500000000000 0.4783550000000000
0.1219350000000000 0.5872500000000000 0.4783550000000000
0.0872500000000000 0.7716450000000000 0.3719350000000000
0.1622950000000000 0.7275199999999999 0.3780300000000000
0.1280650000000000 0.8372500000000000 0.4783550000000000
0.0872500000000000 0.5216450000000000 0.3780650000000000
0.1627500000000000 0.5216450000000000 0.1280650000000000
0.4127499999999999 0.5216450000000000 0.1219350000000000
0.3372500000000000 0.5216450000000000 0.3719350000000000
0.4127500000000000 0.9783550000000000 0.3780650000000000
0.3372500000000000 0.9783550000000000 0.1280650000000000
0.1627500000000000 0.9783550000000000 0.3719350000000000
0.0872500000000000 0.9783550000000000 0.1219350000000000
0.4127500000000000 0.7716450000000000 0.1280650000000000
0.3377050000000000 0.7275199999999999 0.1219700000000000
0.3377050000000000 0.7724800000000001 0.3780300000000000
0.4127500000000000 0.7283550000000000 0.3719350000000000
0.0872500000000000 0.7283550000000000 0.1280650000000000
0.1622950000000000 0.7724800000000001 0.1219700000000000
0.3780650000000000 0.6627500000000000 0.2283550000000000
0.3719350000000000 0.5872500000000000 0.2716450000000000
0.3719350000000000 0.9127500000000000 0.2283550000000000
0.1219350000000000 0.6627500000000000 0.2716450000000000
0.1280650000000000 0.5872500000000000 0.2283550000000000
0.2716450000000000 0.8719350000000000 0.5872500000000000
0.2283550000000000 0.8780650000000000 0.6627500000000000
0.2716450000000000 0.6219350000000000 0.6627500000000000
0.2283550000000000 0.6280650000000000 0.5872500000000000
0.2716450000000000 0.8780650000000000 0.8372500000000000
0.2283550000000000 0.8719349999999999 0.9127500000000000
0.2283550000000000 0.6219350000000000 0.8372500000000000
0.2716450000000000 0.6280649999999999 0.9127500000000000
0.4783550000000000 0.8719350000000000 0.6627500000000000
0.4783550000000000 0.6219350000000000 0.5872500000000000
0.4783550000000000 0.6280650000000000 0.8372500000000000
0.4783550000000000 0.8780649999999999 0.9127500000000000
0.0216450000000000 0.6219349999999999 0.9127500000000000
0.0216450000000000 0.8719350000000000 0.8372500000000000
0.0216450000000000 0.8780650000000000 0.5872500000000000
0.0216450000000000 0.6280650000000000 0.6627500000000000
0.1219350000000000 0.9127500000000000 0.5216450000000000
0.1280650000000000 0.6627500000000000 0.5216450000000000
0.3780650000000000 0.5872500000000000 0.5216450000000000
0.3719350000000000 0.8372500000000000 0.5216450000000000
0.1280650000000000 0.9127500000000000 0.7716450000000000
0.3780650000000000 0.8372500000000000 0.7716450000000000
0.1219350000000000 0.8372500000000000 0.7283550000000000
0.3780650000000000 0.9127499999999998 0.9783550000000000
0.3719350000000000 0.6627499999999998 0.9783550000000000
0.1219350000000000 0.5872499999999999 0.9783550000000000
0.0872500000000000 0.7716450000000000 0.8719350000000000
0.1622950000000000 0.7275199999999999 0.8780300000000000
0.1280650000000000 0.8372499999999999 0.9783550000000000
0.0872500000000000 0.5216450000000001 0.8780650000000000
0.1627500000000000 0.5216450000000001 0.6280650000000000
0.4127500000000000 0.5216450000000001 0.6219350000000000
0.3372500000000000 0.5216450000000001 0.8719350000000000
0.4127500000000000 0.9783550000000000 0.8780650000000000
0.3372500000000000 0.9783550000000000 0.6280650000000000
0.1627500000000000 0.9783550000000000 0.8719350000000000
0.0872500000000000 0.9783550000000000 0.6219350000000000
0.4127500000000000 0.7716450000000000 0.6280650000000000
0.3377050000000000 0.7275199999999999 0.6219700000000000
0.3377050000000000 0.7724800000000001 0.8780300000000000
0.4127500000000000 0.7283550000000000 0.8719350000000000
0.0872500000000000 0.7283550000000000 0.6280650000000000
0.1622950000000000 0.7724800000000001 0.6219700000000000
0.3780650000000000 0.6627500000000000 0.7283550000000000
0.3719350000000000 0.5872500000000000 0.7716450000000000
0.3719350000000000 0.9127500000000000 0.7283550000000000
0.1219350000000000 0.6627500000000000 0.7716450000000000
0.1280650000000000 0.5872500000000000 0.7283550000000000
0.7716450000000000 0.3719350000000000 0.0872500000000000
0.7283550000000000 0.3780650000000000 0.1627500000000000
0.7716450000000000 0.1219350000000000 0.1627500000000000
0.7283550000000000 0.1280650000000000 0.0872500000000000
0.7716450000000000 0.3780650000000000 0.3372500000000000
0.7283550000000000 0.3719350000000000 0.4127500000000000
0.7283550000000000 0.1219350000000000 0.3372500000000000
0.7716450000000000 0.1280650000000000 0.4127500000000000
0.9783550000000000 0.3719350000000000 0.1627500000000000
0.9783550000000000 0.1219350000000000 0.0872500000000000
0.9783550000000000 0.1280650000000000 0.3372500000000000
0.9783550000000000 0.3780650000000000 0.4127500000000000
0.5216450000000000 0.1219350000000000 0.4127500000000000
0.5216450000000000 0.3719350000000000 0.3372500000000000
0.5216450000000000 0.3780650000000000 0.0872500000000000
0.5216450000000000 0.1280650000000000 0.1627500000000000
0.6219350000000000 0.4127500000000000 0.0216450000000000
0.6280650000000000 0.1627500000000000 0.0216450000000000
0.8780650000000000 0.0872500000000000 0.0216450000000000
0.8719350000000000 0.3372500000000000 0.0216450000000000
0.6280650000000000 0.4127500000000000 0.2716450000000000
0.8780650000000000 0.3372500000000000 0.2716450000000000
0.6219350000000000 0.3372500000000000 0.2283550000000000
0.8780650000000000 0.4127499999999999 0.4783550000000000
0.8719350000000000 0.1627500000000000 0.4783550000000000
0.6219350000000000 0.0872500000000000 0.4783550000000000
0.5872500000000000 0.2716450000000000 0.3719350000000000
0.6622949999999999 0.2275200000000000 0.3780300000000000
0.6280650000000000 0.3372500000000000 0.4783550000000000
0.5872500000000000 0.0216450000000000 0.3780650000000000
0.6627500000000000 0.0216450000000000 0.1280650000000000
0.9127500000000000 0.0216450000000000 0.1219350000000000
0.8372500000000000 0.0216450000000000 0.3719350000000000
0.9127500000000000 0.4783550000000000 0.3780650000000000
0.8372500000000000 0.4783550000000000 0.1280650000000000
0.6627500000000000 0.4783550000000000 0.3719350000000000
0.5872500000000000 0.4783550000000000 0.1219350000000000
0.9127500000000000 0.2716450000000000 0.1280650000000000
0.8377049999999999 0.2275200000000000 0.1219700000000000
0.8377049999999999 0.2724800000000000 0.3780300000000000
0.9127500000000000 0.2283550000000000 0.3719350000000000
0.5872500000000000 0.2283550000000000 0.1280650000000000
0.6622949999999999 0.2724800000000000 0.1219700000000000
0.8780650000000000 0.1627500000000000 0.2283550000000000
0.8719350000000000 0.0872500000000000 0.2716450000000000
0.8719350000000000 0.4127500000000000 0.2283550000000000
0.6219350000000000 0.1627500000000000 0.2716450000000000
0.6280650000000000 0.0872500000000000 0.2283550000000000
0.7716450000000000 0.3719350000000000 0.5872500000000000
0.7283550000000000 0.3780650000000000 0.6627500000000000
0.7716450000000000 0.1219350000000000 0.6627500000000000
0.7283550000000000 0.1280650000000000 0.5872500000000000
0.7716450000000000 0.3780650000000000 0.8372500000000000
0.7283549999999999 0.3719350000000000 0.9127500000000000
0.7283550000000000 0.1219350000000000 0.8372500000000000
0.7716449999999999 0.1280650000000000 0.9127500000000000
0.9783550000000000 0.3719350000000000 0.6627500000000000
0.9783550000000000 0.1219350000000000 0.5872500000000000
0.9783550000000000 0.1280650000000000 0.8372500000000000
0.9783549999999999 0.3780650000000000 0.9127500000000000
0.5216450000000000 0.1219350000000000 0.9127500000000000
0.5216450000000001 0.3719350000000000 0.8372500000000000
0.5216450000000001 0.3780650000000000 0.5872500000000000
0.5216450000000001 0.1280650000000000 0.6627500000000000
0.6219350000000000 0.4127499999999999 0.5216450000000000
0.6280650000000000 0.1627500000000000 0.5216450000000000
0.8780650000000000 0.0872500000000000 0.5216450000000000
0.8719350000000000 0.3372500000000000 0.5216450000000000
0.6280650000000000 0.4127500000000000 0.7716450000000000
0.8780650000000000 0.3372500000000000 0.7716450000000000
0.6219350000000000 0.3372500000000000 0.7283550000000000
0.8780649999999999 0.4127500000000000 0.9783550000000000
0.8719349999999999 0.1627500000000000 0.9783550000000000
0.6219349999999999 0.0872500000000000 0.9783550000000000
0.5872500000000000 0.2716450000000000 0.8719350000000000
0.6622949999999999 0.2275200000000000 0.8780300000000000
0.6280649999999999 0.3372500000000000 0.9783550000000000
0.5872500000000000 0.0216450000000000 0.8780650000000000
0.6627500000000000 0.0216450000000000 0.6280650000000000
0.9127500000000000 0.0216450000000000 0.6219350000000000
0.8372500000000000 0.0216450000000000 0.8719350000000000
0.9127500000000000 0.4783550000000000 0.8780650000000000
0.8372500000000000 0.4783550000000000 0.6280650000000000
0.6627500000000000 0.4783550000000000 0.8719350000000000
0.5872500000000000 0.4783550000000000 0.6219350000000000
0.9127500000000000 0.2716450000000000 0.6280650000000000
0.8377049999999999 0.2275200000000000 0.6219700000000000
0.8377049999999999 0.2724800000000000 0.8780300000000000
0.9127500000000000 0.2283550000000000 0.8719350000000000
0.5872500000000000 0.2283550000000000 0.6280650000000000
0.6622949999999999 0.2724799999999999 0.6219700000000000
0.8780650000000000 0.1627500000000000 0.7283550000000000
0.8719350000000000 0.0872500000000000 0.7716450000000000
0.8719350000000000 0.4127500000000000 0.7283550000000000
0.6219350000000000 0.1627500000000000 0.7716450000000000
0.6280650000000000 0.0872500000000000 0.7283550000000000
0.7716450000000000 0.8719350000000000 0.0872500000000000
0.7283550000000000 0.8780650000000000 0.1627500000000000
0.7716450000000000 0.6219350000000000 0.1627500000000000
0.7283550000000000 0.6280650000000000 0.0872500000000000
0.7716450000000000 0.8780650000000000 0.3372500000000000
0.7283550000000000 0.8719350000000000 0.4127500000000000
0.7283550000000000 0.6219350000000000 0.3372500000000000
0.7716450000000000 0.6280650000000000 0.4127500000000000
0.9783550000000000 0.8719350000000000 0.1627500000000000
0.9783550000000000 0.6219350000000000 0.0872500000000000
0.9783550000000000 0.6280650000000000 0.3372500000000000
0.9783550000000000 0.8780650000000000 0.4127500000000000
0.5216450000000001 0.6219350000000000 0.4127500000000000
0.5216450000000001 0.8719350000000000 0.3372500000000000
0.5216450000000001 0.8780650000000000 0.0872500000000000
0.5216450000000001 0.6280650000000000 0.1627500000000000
0.6219349999999999 0.9127500000000000 0.0216450000000000
0.6280650000000000 0.6627500000000000 0.0216450000000000
0.8780650000000000 0.5872500000000000 0.0216450000000000
0.8719350000000000 0.8372500000000000 0.0216450000000000
0.6280649999999999 0.9127500000000000 0.2716450000000000
0.8780650000000000 0.8372500000000000 0.2716450000000000
0.6219350000000000 0.8372500000000000 0.2283550000000000
0.8780649999999999 0.9127500000000000 0.4783550000000000
0.8719350000000000 0.6627500000000000 0.4783550000000000
0.6219350000000000 0.5872500000000000 0.4783550000000000
0.5872500000000000 0.7716450000000000 0.3719350000000000
0.6622949999999999 0.7275199999999999 0.3780300000000000
0.6280650000000000 0.8372500000000000 0.4783550000000000
0.5872500000000000 0.5216450000000000 0.3780650000000000
0.6627500000000000 0.5216450000000000 0.1280650000000000
0.9127500000000000 0.5216450000000000 0.1219350000000000
0.8372500000000000 0.5216450000000000 0.3719350000000000
0.9127499999999998 0.9783550000000000 0.3780650000000000
0.8372499999999999 0.9783550000000000 0.1280650000000000
0.6627499999999998 0.9783550000000000 0.3719350000000000
0.5872499999999999 0.9783550000000000 0.1219350000000000
0.9127500000000000 0.7716450000000000 0.1280650000000000
0.8377049999999999 0.7275199999999999 0.1219700000000000
0.8377049999999999 0.7724800000000001 0.3780300000000000
0.9127500000000000 0.7283550000000000 0.3719350000000000
0.5872500000000000 0.7283550000000000 0.1280650000000000
0.6622949999999999 0.7724800000000001 0.1219700000000000
0.8780650000000000 0.6627500000000000 0.2283550000000000
0.8719350000000000 0.5872500000000000 0.2716450000000000
0.8719349999999999 0.9127500000000000 0.2283550000000000
0.6219350000000000 0.6627500000000000 0.2716450000000000
0.6280650000000000 0.5872500000000000 0.2283550000000000
0.7716450000000000 0.8719350000000000 0.5872500000000000
0.7283550000000000 0.8780650000000000 0.6627500000000000
0.7716450000000000 0.6219350000000000 0.6627500000000000
0.7283550000000000 0.6280650000000000 0.5872500000000000
0.7716450000000000 0.8780650000000000 0.8372500000000000
0.7283549999999999 0.8719349999999999 0.9127500000000000
0.7283550000000000 0.6219350000000000 0.8372500000000000
0.7716449999999999 0.6280649999999999 0.9127500000000000
0.9783550000000000 0.8719350000000000 0.6627500000000000
0.9783550000000000 0.6219350000000000 0.5872500000000000
0.9783550000000000 0.6280650000000000 0.8372500000000000
0.9783549999999999 0.8780649999999999 0.9127500000000000
0.5216450000000000 0.6219349999999999 0.9127500000000000
0.5216450000000001 0.8719350000000000 0.8372500000000000
0.5216450000000001 0.8780650000000000 0.5872500000000000
0.5216450000000001 0.6280650000000000 0.6627500000000000
0.6219349999999999 0.9127500000000000 0.5216450000000000
0.6280650000000000 0.6627500000000000 0.5216450000000000
0.8780650000000000 0.5872500000000000 0.5216450000000000
0.8719350000000000 0.8372500000000000 0.5216450000000000
0.6280649999999999 0.9127500000000000 0.7716450000000000
0.8780650000000000 0.8372500000000000 0.7716450000000000
0.6219350000000000 0.8372500000000000 0.7283550000000000
0.8780649999999998 0.9127499999999998 0.9783550000000000
0.8719349999999999 0.6627499999999998 0.9783550000000000
0.6219349999999999 0.5872499999999999 0.9783550000000000
0.5872500000000002 0.7716450000000000 0.8719350000000000
0.6622949999999999 0.7275199999999999 0.8780300000000000
0.6280649999999999 0.8372499999999999 0.9783550000000000
0.5872500000000000 0.5216450000000001 0.8780650000000000
0.6627500000000000 0.5216450000000001 0.6280650000000000
0.9127500000000000 0.5216450000000001 0.6219350000000000
0.8372500000000000 0.5216450000000001 0.8719350000000000
0.9127499999999998 0.9783550000000000 0.8780650000000000
0.8372499999999999 0.9783550000000000 0.6280650000000000
0.6627499999999998 0.9783550000000000 0.8719350000000000
0.5872500000000000 0.9783550000000000 0.6219350000000000
0.9127500000000000 0.7716450000000000 0.6280650000000000
0.8377049999999999 0.7275199999999999 0.6219700000000000
0.8377049999999999 0.7724800000000001 0.8780300000000000
0.9127500000000000 0.7283550000000000 0.8719350000000000
0.5872500000000002 0.7283550000000000 0.6280650000000000
0.6622949999999999 0.7724800000000001 0.6219700000000000
0.8780650000000000 0.6627500000000000 0.7283550000000000
0.8719350000000000 0.5872500000000000 0.7716450000000000
0.8719349999999999 0.9127500000000000 0.7283550000000000
0.6219350000000000 0.6627500000000000 0.7716450000000000
0.6280650000000000 0.5872500000000000 0.7283550000000000
0.2007400000000000 0.1535700000000000 0.4529850000000000
0.2232950000000000 0.1564050000000000 0.4732950000000000
0.2992600000000001 0.3464300000000000 0.4529850000000000
0.2767050000000000 0.3435949999999999 0.4732950000000000
0.2781700000000000 0.0931250000000000 0.2759250000000000
0.2984000000000001 0.0969950000000000 0.2984000000000000
0.2218300000000000 0.4068750000000000 0.2759250000000000
0.2016000000000000 0.4030049999999999 0.2984000000000000
0.2218300000000000 0.0931250000000000 0.2240750000000000
0.2016000000000000 0.0969950000000000 0.2016000000000000
0.2781700000000000 0.4068750000000000 0.2240750000000000
0.2984000000000001 0.4030049999999999 0.2016000000000000
0.4740750000000000 0.1568750000000000 0.2218300000000000
0.4516000000000000 0.1530050000000000 0.2016000000000000
0.4740750000000000 0.3431250000000000 0.2781700000000000
0.4516000000000000 0.3469950000000001 0.2984000000000000
0.4529850000000000 0.4035700000000000 0.0492600000000000
0.4732950000000000 0.4064050000000001 0.0267050000000000
0.4529850000000000 0.0964300000000000 0.4507400000000000
0.4732949999999999 0.0935950000000000 0.4732950000000000
0.0470150000000000 0.4035700000000000 0.4507400000000000
0.0267050000000000 0.4064050000000000 0.4732950000000000
0.0259250000000000 0.1568750000000000 0.2781700000000000
0.0484000000000000 0.1530050000000000 0.2984000000000000
0.0259250000000000 0.3431250000000000 0.2218300000000000
0.0484000000000000 0.3469950000000001 0.2016000000000000
0.0470150000000000 0.0964300000000000 0.0492600000000000
0.0267050000000000 0.0935950000000000 0.0267050000000000
0.2007400000000000 0.3464300000000000 0.0470150000000000
0.2232950000000000 0.3435950000000000 0.0267050000000000
0.2992600000000000 0.1535700000000000 0.0470150000000000
0.2767050000000000 0.1564050000000000 0.0267050000000000
0.0931250000000000 0.0259250000000000 0.0281700000000000
0.0969950000000000 0.0484000000000000 0.0484000000000000
0.3431250000000000 0.2218300000000000 0.0259250000000000
0.3469950000000001 0.2016000000000000 0.0484000000000000
0.1568750000000000 0.2781700000000000 0.0259250000000000
0.1530050000000000 0.2984000000000000 0.0484000000000000
0.4068749999999999 0.4740750000000000 0.0281700000000000
0.4030049999999999 0.4516000000000000 0.0484000000000000
0.1535700000000000 0.4529850000000000 0.2007400000000000
0.1564050000000000 0.4732950000000000 0.2232950000000000
0.3464300000000000 0.4529850000000000 0.2992600000000000
0.3435949999999999 0.4732950000000000 0.2767050000000000
0.0931250000000000 0.4740750000000000 0.4718300000000000
0.0969950000000000 0.4516000000000000 0.4516000000000000
0.3431250000000000 0.2781699999999999 0.4740750000000000
0.3469950000000001 0.2984000000000001 0.4516000000000000
0.1568750000000000 0.2218300000000000 0.4740750000000000
0.1530050000000000 0.2016000000000000 0.4516000000000000
0.0964300000000000 0.2992600000000001 0.2970150000000000
0.0935950000000000 0.2767050000000000 0.2767050000000000
0.4035700000000000 0.2992600000000000 0.2029850000000000
0.4064050000000001 0.2767050000000000 0.2232950000000000
0.0964300000000000 0.2007400000000000 0.2029850000000000
0.0935950000000000 0.2232950000000000 0.2232950000000000
0.4035700000000000 0.2007400000000000 0.2970150000000000
0.4064050000000001 0.2232950000000000 0.2767050000000000
0.1535700000000000 0.0470150000000000 0.2992600000000000
0.1564049999999999 0.0267050000000000 0.2767050000000000
0.3464300000000000 0.0470150000000000 0.2007400000000000
0.3435950000000000 0.0267050000000000 0.2232950000000000
0.2218300000000000 0.0259250000000000 0.3431250000000000
0.2016000000000000 0.0484000000000000 0.3469950000000001
0.0259250000000000 0.0281700000000000 0.0931250000000000
0.0484000000000000 0.0484000000000000 0.0969950000000000
0.0470150000000000 0.2007400000000000 0.3464300000000000
0.0267050000000000 0.2232950000000000 0.3435950000000000
0.0470150000000000 0.2992600000000000 0.1535700000000000
0.0267050000000000 0.2767050000000000 0.1564050000000000
0.0259250000000000 0.4718300000000000 0.4068750000000000
0.0484000000000000 0.4516000000000000 0.4030049999999999
0.2218300000000000 0.4740750000000000 0.1568750000000000
0.2016000000000000 0.4516000000000000 0.1530050000000000
0.2781700000000000 0.4740750000000000 0.3431250000000000
0.2984000000000001 0.4516000000000000 0.3469950000000001
0.4740750000000000 0.4718300000000000 0.0931250000000000
0.4516000000000000 0.4516000000000000 0.0969950000000000
0.4529850000000000 0.2992600000000001 0.3464300000000000
0.4732950000000000 0.2767050000000000 0.3435950000000000
0.4529850000000000 0.2007400000000000 0.1535700000000000
0.4732950000000000 0.2232950000000000 0.1564050000000000
0.4740750000000000 0.0281700000000000 0.4068750000000000
0.4516000000000000 0.0484000000000000 0.4030049999999999
0.2781700000000000 0.0259250000000000 0.1568750000000000
0.2984000000000000 0.0484000000000000 0.1530050000000000
0.2992600000000001 0.2029850000000000 0.4035700000000000
0.2767050000000000 0.2232950000000000 0.4064050000000001
0.2992600000000001 0.2970150000000000 0.0964300000000000
0.2767050000000000 0.2767050000000000 0.0935950000000000
0.2007400000000000 0.2970150000000000 0.4035700000000000
0.2232950000000000 0.2767050000000000 0.4064050000000001
0.2007400000000000 0.2029850000000000 0.0964300000000000
0.2232950000000000 0.2232950000000000 0.0935950000000000
0.4068749999999999 0.0259250000000000 0.4718300000000000
0.4030049999999999 0.0484000000000000 0.4516000000000000
0.2007400000000000 0.1535700000000000 0.9529850000000000
0.2232950000000000 0.1564050000000000 0.9732950000000000
0.2992600000000001 0.3464300000000001 0.9529850000000000
0.2767050000000000 0.3435950000000000 0.9732950000000000
0.2781699999999999 0.0931250000000000 0.7759250000000000
0.2984000000000000 0.0969950000000000 0.7984000000000000
0.2218300000000000 0.4068750000000000 0.7759250000000000
0.2016000000000000 0.4030050000000000 0.7984000000000000
0.2218300000000000 0.0931250000000000 0.7240750000000000
0.2016000000000000 0.0969950000000000 0.7016000000000000
0.2781700000000000 0.4068750000000000 0.7240750000000000
0.2984000000000000 0.4030050000000000 0.7016000000000000
0.4740750000000000 0.1568750000000000 0.7218300000000000
0.4516000000000001 0.1530050000000000 0.7016000000000000
0.4740750000000000 0.3431250000000000 0.7781700000000000
0.4516000000000001 0.3469950000000001 0.7984000000000000
0.4529850000000000 0.4035699999999999 0.5492600000000000
0.4732949999999999 0.4064050000000000 0.5267050000000000
0.4529850000000000 0.0964300000000000 0.9507400000000000
0.4732950000000000 0.0935950000000000 0.9732950000000000
0.0470150000000000 0.4035700000000000 0.9507400000000000
0.0267050000000000 0.4064050000000001 0.9732950000000000
0.0259250000000000 0.1568750000000000 0.7781700000000000
0.0484000000000000 0.1530050000000000 0.7984000000000000
0.0259250000000000 0.3431250000000000 0.7218300000000000
0.0484000000000000 0.3469950000000001 0.7016000000000000
0.0470150000000000 0.0964300000000000 0.5492600000000000
0.0267050000000000 0.0935950000000000 0.5267050000000000
0.2007400000000000 0.3464300000000000 0.5470150000000000
0.2232950000000000 0.3435949999999999 0.5267050000000000
0.2992600000000000 0.1535700000000000 0.5470150000000000
0.2767050000000000 0.1564050000000000 0.5267050000000000
0.0931250000000000 0.0259250000000000 0.5281700000000000
0.0969950000000000 0.0484000000000000 0.5484000000000000
0.3431250000000000 0.2218300000000000 0.5259250000000000
0.3469950000000000 0.2016000000000000 0.5484000000000000
0.1568750000000000 0.2781699999999999 0.5259250000000000
0.1530050000000000 0.2984000000000000 0.5484000000000000
0.4068749999999999 0.4740750000000000 0.5281700000000000
0.4030049999999999 0.4515999999999999 0.5484000000000000
0.1535700000000000 0.4529850000000000 0.7007400000000000
0.1564050000000000 0.4732950000000000 0.7232950000000000
0.3464300000000001 0.4529850000000000 0.7992600000000001
0.3435949999999999 0.4732950000000000 0.7767050000000000
0.0931250000000000 0.4740750000000000 0.9718300000000000
0.0969950000000000 0.4516000000000001 0.9516000000000000
0.3431250000000000 0.2781700000000000 0.9740750000000000
0.3469950000000001 0.2984000000000000 0.9516000000000000
0.1568750000000000 0.2218300000000000 0.9740750000000000
0.1530050000000000 0.2016000000000000 0.9516000000000000
0.0964300000000000 0.2992600000000000 0.7970150000000000
0.0935950000000000 0.2767050000000000 0.7767050000000000
0.4035700000000000 0.2992600000000000 0.7029850000000000
0.4064050000000001 0.2767050000000000 0.7232950000000000
0.0964300000000000 0.2007400000000000 0.7029850000000000
0.0935950000000000 0.2232950000000000 0.7232950000000000
0.4035700000000000 0.2007400000000000 0.7970150000000000
0.4064050000000001 0.2232950000000000 0.7767050000000000
0.1535700000000000 0.0470150000000000 0.7992600000000001
0.1564050000000000 0.0267050000000000 0.7767050000000000
0.3464300000000001 0.0470150000000000 0.7007400000000000
0.3435950000000000 0.0267050000000000 0.7232950000000000
0.2218300000000000 0.0259250000000000 0.8431250000000001
0.2016000000000000 0.0484000000000000 0.8469949999999999
0.0259250000000000 0.0281700000000000 0.5931250000000000
0.0484000000000000 0.0484000000000000 0.5969949999999999
0.0470150000000000 0.2007400000000000 0.8464300000000000
0.0267050000000000 0.2232950000000000 0.8435950000000000
0.0470150000000000 0.2992600000000000 0.6535700000000001
0.0267050000000000 0.2767050000000000 0.6564050000000000
0.0259250000000000 0.4718300000000000 0.9068750000000000
0.0484000000000000 0.4516000000000001 0.9030050000000001
0.2218300000000000 0.4740750000000000 0.6568750000000000
0.2016000000000000 0.4516000000000001 0.6530050000000001
0.2781700000000000 0.4740750000000000 0.8431250000000001
0.2984000000000001 0.4516000000000001 0.8469949999999999
0.4740750000000000 0.4718300000000000 0.5931250000000000
0.4516000000000001 0.4516000000000001 0.5969949999999999
0.4529850000000000 0.2992600000000000 0.8464300000000000
0.4732950000000000 0.2767050000000000 0.8435950000000000
0.4529850000000000 0.2007400000000000 0.6535700000000001
0.4732950000000000 0.2232950000000000 0.6564050000000000
0.4740750000000000 0.0281700000000000 0.9068750000000000
0.4516000000000001 0.0484000000000000 0.9030050000000001
0.2781699999999999 0.0259250000000000 0.6568750000000000
0.2984000000000000 0.0484000000000000 0.6530050000000001
0.2992600000000000 0.2029850000000000 0.9035700000000001
0.2767050000000000 0.2232950000000000 0.9064050000000000
0.2992600000000000 0.2970149999999999 0.5964300000000000
0.2767050000000000 0.2767050000000000 0.5935950000000000
0.2007400000000000 0.2970150000000000 0.9035700000000001
0.2232950000000000 0.2767050000000000 0.9064050000000000
0.2007400000000000 0.2029850000000000 0.5964300000000000
0.2232950000000000 0.2232950000000000 0.5935950000000000
0.4068750000000000 0.0259250000000000 0.9718300000000000
0.4030050000000000 0.0484000000000000 0.9516000000000000
0.2007400000000000 0.6535700000000001 0.4529850000000000
0.2232950000000000 0.6564050000000000 0.4732950000000000
0.2992600000000001 0.8464300000000000 0.4529850000000000
0.2767050000000000 0.8435950000000000 0.4732950000000000
0.2781699999999999 0.5931250000000000 0.2759250000000000
0.2984000000000000 0.5969949999999999 0.2984000000000000
0.2218300000000000 0.9068750000000000 0.2759250000000000
0.2016000000000000 0.9030050000000001 0.2984000000000000
0.2218300000000000 0.5931250000000000 0.2240750000000000
0.2016000000000000 0.5969949999999999 0.2016000000000000
0.2781700000000000 0.9068750000000000 0.2240750000000000
0.2984000000000000 0.9030050000000001 0.2016000000000000
0.4740750000000000 0.6568750000000000 0.2218300000000000
0.4516000000000001 0.6530050000000001 0.2016000000000000
0.4740750000000000 0.8431250000000001 0.2781700000000000
0.4516000000000001 0.8469949999999999 0.2984000000000000
0.4529850000000000 0.9035700000000001 0.0492600000000000
0.4732950000000000 0.9064050000000000 0.0267050000000000
0.4529850000000000 0.5964300000000000 0.4507400000000000
0.4732950000000000 0.5935950000000000 0.4732950000000000
0.0470150000000000 0.9035700000000001 0.4507400000000000
0.0267050000000000 0.9064050000000000 0.4732950000000000
0.0259250000000000 0.6568750000000000 0.2781700000000000
0.0484000000000000 0.6530050000000001 0.2984000000000000
0.0259250000000000 0.8431250000000001 0.2218300000000000
0.0484000000000000 0.8469949999999999 0.2016000000000000
0.0470150000000000 0.5964300000000000 0.0492600000000000
0.0267050000000000 0.5935950000000000 0.0267050000000000
0.2007400000000000 0.8464300000000000 0.0470150000000000
0.2232950000000000 0.8435950000000000 0.0267050000000000
0.2992600000000000 0.6535700000000001 0.0470150000000000
0.2767050000000000 0.6564050000000000 0.0267050000000000
0.0931250000000000 0.5259250000000000 0.0281700000000000
0.0969950000000000 0.5484000000000000 0.0484000000000000
0.3431250000000000 0.7218300000000000 0.0259250000000000
0.3469950000000001 0.7016000000000000 0.0484000000000000
0.1568750000000000 0.7781700000000000 0.0259250000000000
0.1530050000000000 0.7984000000000000 0.0484000000000000
0.4068750000000000 0.9740750000000000 0.0281700000000000
0.4030050000000000 0.9516000000000000 0.0484000000000000
0.1535700000000000 0.9529850000000000 0.2007400000000000
0.1564050000000000 0.9732950000000000 0.2232950000000000
0.3464300000000001 0.9529850000000000 0.2992600000000000
0.3435950000000000 0.9732950000000000 0.2767050000000000
0.0931250000000000 0.9740750000000000 0.4718300000000000
0.0969950000000000 0.9516000000000000 0.4516000000000000
0.3431250000000000 0.7781700000000000 0.4740750000000000
0.3469950000000001 0.7984000000000000 0.4516000000000000
0.1568750000000000 0.7218300000000000 0.4740750000000000
0.1530050000000000 0.7016000000000000 0.4516000000000000
0.0964300000000000 0.7992600000000001 0.2970150000000000
0.0935950000000000 0.7767050000000000 0.2767050000000000
0.4035700000000000 0.7992600000000001 0.2029850000000000
0.4064050000000001 0.7767050000000000 0.2232950000000000
0.0964300000000000 0.7007400000000000 0.2029850000000000
0.0935950000000000 0.7232950000000000 0.2232950000000000
0.4035700000000000 0.7007400000000000 0.2970150000000000
0.4064050000000001 0.7232950000000000 0.2767050000000000
0.1535700000000000 0.5470150000000000 0.2992600000000000
0.1564050000000000 0.5267050000000000 0.2767050000000000
0.3464300000000000 0.5470150000000000 0.2007400000000000
0.3435949999999999 0.5267050000000000 0.2232950000000000
0.2218300000000000 0.5259250000000000 0.3431250000000000
0.2016000000000000 0.5484000000000000 0.3469950000000001
0.0259250000000000 0.5281700000000000 0.0931250000000000
0.0484000000000000 0.5484000000000000 0.0969950000000000
0.0470150000000000 0.7007400000000000 0.3464300000000000
0.0267050000000000 0.7232950000000000 0.3435950000000000
0.0470150000000000 0.7992600000000001 0.1535700000000000
0.0267050000000000 0.7767050000000000 0.1564050000000000
0.0259250000000000 0.9718300000000000 0.4068750000000000
0.0484000000000000 0.9516000000000000 0.4030049999999999
0.2218300000000000 0.9740750000000000 0.1568750000000000
0.2016000000000000 0.9516000000000000 0.1530050000000000
0.2781700000000000 0.9740750000000000 0.3431250000000000
0.2984000000000001 0.9516000000000000 0.3469950000000001
0.4740750000000000 0.9718300000000000 0.0931250000000000
0.4516000000000001 0.9516000000000000 0.0969950000000000
0.4529850000000000 0.7992600000000001 0.3464300000000000
0.4732950000000000 0.7767050000000000 0.3435950000000000
0.4529850000000000 0.7007400000000000 0.1535700000000000
0.4732950000000000 0.7232950000000000 0.1564050000000000
0.4740750000000000 0.5281700000000000 0.4068750000000000
0.4515999999999999 0.5484000000000000 0.4030049999999999
0.2781699999999999 0.5259250000000000 0.1568750000000000
0.2984000000000000 0.5484000000000000 0.1530050000000000
0.2992600000000000 0.7029850000000000 0.4035700000000000
0.2767050000000000 0.7232950000000000 0.4064050000000001
0.2992600000000000 0.7970150000000000 0.0964300000000000
0.2767050000000000 0.7767050000000000 0.0935950000000000
0.2007400000000000 0.7970150000000000 0.4035700000000000
0.2232950000000000 0.7767050000000000 0.4064050000000001
0.2007400000000000 0.7029850000000000 0.0964300000000000
0.2232950000000000 0.7232950000000000 0.0935950000000000
0.4068749999999999 0.5259250000000000 0.4718300000000000
0.4030049999999999 0.5484000000000000 0.4516000000000000
0.2007400000000000 0.6535700000000000 0.9529850000000000
0.2232950000000000 0.6564049999999999 0.9732950000000000
0.2992600000000001 0.8464299999999999 0.9529850000000000
0.2767050000000000 0.8435949999999999 0.9732950000000000
0.2781699999999999 0.5931250000000001 0.7759250000000000
0.2983999999999999 0.5969950000000001 0.7984000000000000
0.2218300000000000 0.9068750000000000 0.7759250000000000
0.2016000000000000 0.9030050000000001 0.7984000000000000
0.2218300000000000 0.5931250000000001 0.7240750000000000
0.2016000000000000 0.5969950000000001 0.7016000000000000
0.2781700000000000 0.9068750000000000 0.7240750000000000
0.2984000000000000 0.9030050000000001 0.7016000000000000
0.4740750000000001 0.6568750000000000 0.7218300000000000
0.4516000000000001 0.6530050000000001 0.7016000000000000
0.4740750000000001 0.8431250000000001 0.7781700000000000
0.4516000000000001 0.8469949999999999 0.7984000000000000
0.4529850000000000 0.9035700000000001 0.5492600000000000
0.4732950000000000 0.9064050000000000 0.5267050000000000
0.4529850000000000 0.5964300000000000 0.9507400000000000
0.4732950000000000 0.5935949999999999 0.9732950000000000
0.0470150000000000 0.9035700000000000 0.9507400000000000
0.0267050000000000 0.9064049999999999 0.9732950000000000
0.0259250000000000 0.6568750000000000 0.7781700000000000
0.0484000000000000 0.6530050000000001 0.7984000000000000
0.0259250000000000 0.8431250000000001 0.7218300000000000
0.0484000000000000 0.8469949999999999 0.7016000000000000
0.0470150000000000 0.5964300000000000 0.5492600000000000
0.0267050000000000 0.5935950000000000 0.5267050000000000
0.2007400000000000 0.8464300000000000 0.5470150000000000
0.2232950000000000 0.8435950000000000 0.5267050000000000
0.2992600000000000 0.6535700000000001 0.5470150000000000
0.2767049999999999 0.6564050000000000 0.5267050000000000
0.0931250000000000 0.5259250000000000 0.5281700000000000
0.0969950000000000 0.5484000000000000 0.5484000000000000
0.3431250000000000 0.7218300000000000 0.5259250000000000
0.3469950000000000 0.7016000000000000 0.5484000000000000
0.1568750000000000 0.7781700000000000 0.5259250000000000
0.1530050000000000 0.7984000000000000 0.5484000000000000
0.4068750000000000 0.9740750000000000 0.5281700000000000
0.4030049999999999 0.9516000000000000 0.5484000000000000
0.1535700000000000 0.9529850000000000 0.7007400000000000
0.1564050000000000 0.9732950000000000 0.7232950000000000
0.3464300000000001 0.9529850000000000 0.7992600000000001
0.3435950000000000 0.9732950000000000 0.7767050000000000
0.0931250000000000 0.9740749999999999 0.9718300000000000
0.0969950000000000 0.9515999999999999 0.9516000000000000
0.3431250000000000 0.7781699999999999 0.9740750000000000
0.3469950000000001 0.7983999999999999 0.9516000000000000
0.1568750000000000 0.7218299999999999 0.9740750000000000
0.1530050000000000 0.7015999999999999 0.9516000000000000
0.0964300000000000 0.7992600000000001 0.7970150000000000
0.0935950000000000 0.7767050000000000 0.7767050000000000
0.4035700000000000 0.7992600000000001 0.7029850000000000
0.4064050000000001 0.7767050000000000 0.7232950000000000
0.0964300000000000 0.7007400000000000 0.7029850000000000
0.0935950000000000 0.7232950000000000 0.7232950000000000
0.4035700000000000 0.7007400000000000 0.7970150000000000
0.4064050000000001 0.7232950000000000 0.7767050000000000
0.1535700000000000 0.5470150000000000 0.7992600000000001
0.1564050000000000 0.5267050000000001 0.7767050000000000
0.3464300000000000 0.5470150000000000 0.7007400000000000
0.3435949999999999 0.5267050000000001 0.7232950000000000
0.2218300000000000 0.5259250000000001 0.8431250000000001
0.2016000000000000 0.5484000000000000 0.8469949999999999
0.0259250000000000 0.5281700000000000 0.5931250000000000
0.0484000000000000 0.5484000000000000 0.5969949999999999
0.0470150000000000 0.7007400000000000 0.8464300000000000
0.0267050000000000 0.7232950000000000 0.8435950000000000
0.0470150000000000 0.7992600000000001 0.6535700000000001
0.0267050000000000 0.7767050000000000 0.6564050000000000
0.0259250000000000 0.9718299999999999 0.9068750000000000
0.0484000000000000 0.9516000000000000 0.9030050000000001
0.2218300000000000 0.9740750000000000 0.6568750000000000
0.2016000000000000 0.9516000000000000 0.6530050000000001
0.2781700000000000 0.9740750000000000 0.8431250000000001
0.2984000000000001 0.9516000000000000 0.8469949999999999
0.4740750000000001 0.9718300000000000 0.5931250000000000
0.4516000000000001 0.9516000000000000 0.5969949999999999
0.4529850000000000 0.7992600000000001 0.8464300000000000
0.4732950000000000 0.7767050000000000 0.8435950000000000
0.4529850000000000 0.7007400000000000 0.6535700000000001
0.4732950000000000 0.7232950000000000 0.6564050000000000
0.4740750000000000 0.5281699999999999 0.9068750000000000
0.4516000000000000 0.5484000000000000 0.9030050000000001
0.2781699999999999 0.5259250000000001 0.6568750000000000
0.2983999999999999 0.5484000000000000 0.6530050000000001
0.2992600000000000 0.7029850000000000 0.9035700000000001
0.2767050000000000 0.7232950000000000 0.9064050000000000
0.2992600000000000 0.7970150000000000 0.5964300000000000
0.2767049999999999 0.7767050000000000 0.5935950000000000
0.2007400000000000 0.7970150000000000 0.9035700000000001
0.2232950000000000 0.7767050000000000 0.9064050000000000
0.2007400000000000 0.7029850000000000 0.5964300000000000
0.2232950000000000 0.7232950000000000 0.5935950000000000
0.4068750000000000 0.5259250000000000 0.9718300000000000
0.4030049999999999 0.5483999999999999 0.9516000000000000
0.7007400000000000 0.1535700000000000 0.4529850000000000
0.7232950000000000 0.1564050000000000 0.4732950000000000
0.7992600000000001 0.3464300000000000 0.4529850000000000
0.7767050000000000 0.3435949999999999 0.4732950000000000
0.7781700000000000 0.0931250000000000 0.2759250000000000
0.7984000000000000 0.0969950000000000 0.2984000000000000
0.7218300000000000 0.4068750000000000 0.2759250000000000
0.7016000000000000 0.4030049999999999 0.2984000000000000
0.7218300000000000 0.0931250000000000 0.2240750000000000
0.7016000000000000 0.0969950000000000 0.2016000000000000
0.7781700000000000 0.4068750000000000 0.2240750000000000
0.7984000000000000 0.4030049999999999 0.2016000000000000
0.9740750000000000 0.1568750000000000 0.2218300000000000
0.9516000000000000 0.1530050000000000 0.2016000000000000
0.9740750000000000 0.3431250000000000 0.2781700000000000
0.9516000000000000 0.3469950000000001 0.2984000000000000
0.9529850000000000 0.4035700000000000 0.0492600000000000
0.9732950000000000 0.4064050000000001 0.0267050000000000
0.9529850000000000 0.0964300000000000 0.4507400000000000
0.9732950000000000 0.0935950000000000 0.4732950000000000
0.5470150000000000 0.4035700000000000 0.4507400000000000
0.5267050000000000 0.4064050000000000 0.4732950000000000
0.5259250000000000 0.1568750000000000 0.2781700000000000
0.5484000000000000 0.1530050000000000 0.2984000000000000
0.5259250000000000 0.3431250000000000 0.2218300000000000
0.5484000000000000 0.3469950000000001 0.2016000000000000
0.5470150000000000 0.0964300000000000 0.0492600000000000
0.5267050000000000 0.0935950000000000 0.0267050000000000
0.7007400000000000 0.3464300000000000 0.0470150000000000
0.7232950000000000 0.3435950000000000 0.0267050000000000
0.7992600000000001 0.1535700000000000 0.0470150000000000
0.7767050000000000 0.1564050000000000 0.0267050000000000
0.5931250000000000 0.0259250000000000 0.0281700000000000
0.5969949999999999 0.0484000000000000 0.0484000000000000
0.8431250000000001 0.2218300000000000 0.0259250000000000
0.8469949999999999 0.2016000000000000 0.0484000000000000
0.6568750000000000 0.2781700000000000 0.0259250000000000
0.6530050000000001 0.2984000000000000 0.0484000000000000
0.9068750000000000 0.4740750000000000 0.0281700000000000
0.9030050000000001 0.4516000000000000 0.0484000000000000
0.6535700000000001 0.4529850000000000 0.2007400000000000
0.6564050000000000 0.4732950000000000 0.2232950000000000
0.8464300000000000 0.4529850000000000 0.2992600000000000
0.8435950000000000 0.4732950000000000 0.2767050000000000
0.5931250000000000 0.4740750000000000 0.4718300000000000
0.5969949999999999 0.4516000000000000 0.4516000000000000
0.8431250000000001 0.2781699999999999 0.4740750000000000
0.8469949999999999 0.2984000000000001 0.4516000000000000
0.6568750000000000 0.2218300000000000 0.4740750000000000
0.6530050000000001 0.2016000000000000 0.4516000000000000
0.5964300000000000 0.2992600000000001 0.2970150000000000
0.5935950000000000 0.2767050000000000 0.2767050000000000
0.9035700000000001 0.2992600000000000 0.2029850000000000
0.9064050000000000 0.2767050000000000 0.2232950000000000
0.5964300000000000 0.2007400000000000 0.2029850000000000
0.5935950000000000 0.2232950000000000 0.2232950000000000
0.9035700000000001 0.2007400000000000 0.2970150000000000
0.9064050000000000 0.2232950000000000 0.2767050000000000
0.6535700000000001 0.0470150000000000 0.2992600000000000
0.6564050000000000 0.0267050000000000 0.2767050000000000
0.8464300000000000 0.0470150000000000 0.2007400000000000
0.8435950000000000 0.0267050000000000 0.2232950000000000
0.7218300000000000 0.0259250000000000 0.3431250000000000
0.7016000000000000 0.0484000000000000 0.3469950000000001
0.5259250000000000 0.0281700000000000 0.0931250000000000
0.5484000000000000 0.0484000000000000 0.0969950000000000
0.5470150000000000 0.2007400000000000 0.3464300000000000
0.5267050000000000 0.2232950000000000 0.3435950000000000
0.5470150000000000 0.2992600000000000 0.1535700000000000
0.5267050000000000 0.2767050000000000 0.1564050000000000
0.5259250000000000 0.4718300000000000 0.4068750000000000
0.5484000000000000 0.4516000000000000 0.4030049999999999
0.7218300000000000 0.4740750000000000 0.1568750000000000
0.7016000000000000 0.4516000000000000 0.1530050000000000
0.7781700000000000 0.4740750000000000 0.3431250000000000
0.7984000000000000 0.4516000000000000 0.3469950000000001
0.9740750000000000 0.4718300000000000 0.0931250000000000
0.9516000000000000 0.4516000000000000 0.0969950000000000
0.9529850000000000 0.2992600000000001 0.3464300000000000
0.9732950000000000 0.2767050000000000 0.3435950000000000
0.9529850000000000 0.2007400000000000 0.1535700000000000
0.9732950000000000 0.2232950000000000 0.1564050000000000
0.9740750000000000 0.0281700000000000 0.4068750000000000
0.9516000000000000 0.0484000000000000 0.4030049999999999
0.7781700000000000 0.0259250000000000 0.1568750000000000
0.7984000000000000 0.0484000000000000 0.1530050000000000
0.7992600000000001 0.2029850000000000 0.4035700000000000
0.7767050000000000 0.2232950000000000 0.4064050000000001
0.7992600000000001 0.2970150000000000 0.0964300000000000
0.7767050000000000 0.2767050000000000 0.0935950000000000
0.7007400000000000 0.2970150000000000 0.4035700000000000
0.7232950000000000 0.2767050000000000 0.4064050000000001
0.7007400000000000 0.2029850000000000 0.0964300000000000
0.7232950000000000 0.2232950000000000 0.0935950000000000
0.9068750000000000 0.0259250000000000 0.4718300000000000
0.9030050000000001 0.0484000000000000 0.4516000000000000
0.7007399999999999 0.1535700000000000 0.9529850000000000
0.7232949999999999 0.1564050000000000 0.9732950000000000
0.7992600000000000 0.3464300000000001 0.9529850000000000
0.7767049999999999 0.3435950000000000 0.9732950000000000
0.7781700000000000 0.0931250000000000 0.7759250000000000
0.7984000000000000 0.0969950000000000 0.7984000000000000
0.7218300000000000 0.4068750000000000 0.7759250000000000
0.7016000000000000 0.4030050000000000 0.7984000000000000
0.7218300000000000 0.0931250000000000 0.7240750000000000
0.7016000000000000 0.0969950000000000 0.7016000000000000
0.7781700000000000 0.4068750000000000 0.7240750000000000
0.7984000000000000 0.4030050000000000 0.7016000000000000
0.9740750000000000 0.1568750000000000 0.7218300000000000
0.9516000000000000 0.1530050000000000 0.7016000000000000
0.9740750000000000 0.3431250000000000 0.7781700000000000
0.9516000000000000 0.3469950000000001 0.7984000000000000
0.9529850000000000 0.4035699999999999 0.5492600000000000
0.9732950000000000 0.4064050000000000 0.5267050000000000
0.9529849999999999 0.0964300000000000 0.9507400000000000
0.9732949999999999 0.0935950000000000 0.9732950000000000
0.5470149999999999 0.4035700000000000 0.9507400000000000
0.5267050000000000 0.4064050000000001 0.9732950000000000
0.5259250000000001 0.1568750000000000 0.7781700000000000
0.5484000000000000 0.1530050000000000 0.7984000000000000
0.5259250000000001 0.3431250000000000 0.7218300000000000
0.5484000000000000 0.3469950000000001 0.7016000000000000
0.5470150000000000 0.0964300000000000 0.5492600000000000
0.5267050000000000 0.0935950000000000 0.5267050000000000
0.7007400000000000 0.3464300000000000 0.5470150000000000
0.7232950000000000 0.3435949999999999 0.5267050000000000
0.7992600000000001 0.1535700000000000 0.5470150000000000
0.7767050000000000 0.1564050000000000 0.5267050000000000
0.5931250000000000 0.0259250000000000 0.5281700000000000
0.5969949999999999 0.0484000000000000 0.5484000000000000
0.8431250000000001 0.2218300000000000 0.5259250000000000
0.8469949999999999 0.2016000000000000 0.5484000000000000
0.6568750000000000 0.2781699999999999 0.5259250000000000
0.6530050000000001 0.2984000000000000 0.5484000000000000
0.9068750000000000 0.4740750000000000 0.5281700000000000
0.9030050000000001 0.4515999999999999 0.5484000000000000
0.6535700000000001 0.4529850000000000 0.7007400000000000
0.6564050000000000 0.4732950000000000 0.7232950000000000
0.8464300000000000 0.4529850000000000 0.7992600000000001
0.8435950000000000 0.4732950000000000 0.7767050000000000
0.5931250000000000 0.4740750000000000 0.9718300000000000
0.5969949999999999 0.4516000000000001 0.9516000000000000
0.8431250000000000 0.2781700000000000 0.9740750000000000
0.8469949999999998 0.2984000000000000 0.9516000000000000
0.6568749999999999 0.2218300000000000 0.9740750000000000
0.6530049999999999 0.2016000000000000 0.9516000000000000
0.5964300000000001 0.2992600000000000 0.7970150000000000
0.5935950000000000 0.2767050000000000 0.7767050000000000
0.9035700000000001 0.2992600000000000 0.7029850000000000
0.9064050000000000 0.2767050000000000 0.7232950000000000
0.5964300000000001 0.2007400000000000 0.7029850000000000
0.5935950000000000 0.2232950000000000 0.7232950000000000
0.9035700000000001 0.2007400000000000 0.7970150000000000
0.9064050000000000 0.2232950000000000 0.7767050000000000
0.6535700000000001 0.0470150000000000 0.7992600000000001
0.6564050000000000 0.0267050000000000 0.7767050000000000
0.8464300000000000 0.0470150000000000 0.7007400000000000
0.8435950000000000 0.0267050000000000 0.7232950000000000
0.7218300000000000 0.0259250000000000 0.8431250000000001
0.7016000000000000 0.0484000000000000 0.8469949999999999
0.5259250000000001 0.0281700000000000 0.5931250000000000
0.5484000000000000 0.0484000000000000 0.5969949999999999
0.5470150000000000 0.2007400000000000 0.8464300000000000
0.5267050000000001 0.2232950000000000 0.8435950000000000
0.5470150000000000 0.2992600000000000 0.6535700000000001
0.5267050000000001 0.2767050000000000 0.6564050000000000
0.5259250000000000 0.4718300000000000 0.9068750000000000
0.5484000000000000 0.4516000000000001 0.9030050000000001
0.7218300000000000 0.4740750000000000 0.6568750000000000
0.7016000000000000 0.4516000000000001 0.6530050000000001
0.7781700000000000 0.4740750000000000 0.8431250000000001
0.7984000000000000 0.4516000000000001 0.8469949999999999
0.9740750000000000 0.4718300000000000 0.5931250000000000
0.9516000000000000 0.4516000000000001 0.5969949999999999
0.9529850000000000 0.2992600000000000 0.8464300000000000
0.9732950000000000 0.2767050000000000 0.8435950000000000
0.9529850000000000 0.2007400000000000 0.6535700000000001
0.9732950000000000 0.2232950000000000 0.6564050000000000
0.9740749999999999 0.0281700000000000 0.9068750000000000
0.9516000000000000 0.0484000000000000 0.9030050000000001
0.7781700000000000 0.0259250000000000 0.6568750000000000
0.7984000000000000 0.0484000000000000 0.6530050000000001
0.7992600000000001 0.2029850000000000 0.9035700000000001
0.7767050000000000 0.2232950000000000 0.9064050000000000
0.7992600000000001 0.2970149999999999 0.5964300000000000
0.7767050000000000 0.2767050000000000 0.5935950000000000
0.7007400000000000 0.2970150000000000 0.9035700000000001
0.7232950000000000 0.2767050000000000 0.9064050000000000
0.7007400000000000 0.2029850000000000 0.5964300000000000
0.7232950000000000 0.2232950000000000 0.5935950000000000
0.9068749999999999 0.0259250000000000 0.9718300000000000
0.9030049999999999 0.0484000000000000 0.9516000000000000
0.7007400000000000 0.6535700000000001 0.4529850000000000
0.7232950000000000 0.6564050000000000 0.4732950000000000
0.7992600000000001 0.8464300000000000 0.4529850000000000
0.7767050000000000 0.8435950000000000 0.4732950000000000
0.7781700000000000 0.5931250000000000 0.2759250000000000
0.7984000000000000 0.5969949999999999 0.2984000000000000
0.7218299999999999 0.9068750000000000 0.2759250000000000
0.7016000000000000 0.9030050000000001 0.2984000000000000
0.7218300000000000 0.5931250000000000 0.2240750000000000
0.7016000000000000 0.5969949999999999 0.2016000000000000
0.7781699999999999 0.9068750000000000 0.2240750000000000
0.7984000000000000 0.9030050000000001 0.2016000000000000
0.9740750000000000 0.6568750000000000 0.2218300000000000
0.9516000000000000 0.6530050000000001 0.2016000000000000
0.9740750000000000 0.8431250000000001 0.2781700000000000
0.9516000000000000 0.8469949999999999 0.2984000000000000
0.9529850000000000 0.9035700000000001 0.0492600000000000
0.9732950000000000 0.9064050000000000 0.0267050000000000
0.9529850000000000 0.5964300000000000 0.4507400000000000
0.9732950000000000 0.5935950000000000 0.4732950000000000
0.5470150000000000 0.9035700000000001 0.4507400000000000
0.5267050000000001 0.9064050000000000 0.4732950000000000
0.5259250000000001 0.6568750000000000 0.2781700000000000
0.5484000000000000 0.6530050000000001 0.2984000000000000
0.5259250000000001 0.8431250000000001 0.2218300000000000
0.5484000000000000 0.8469949999999999 0.2016000000000000
0.5470150000000000 0.5964300000000000 0.0492600000000000
0.5267050000000001 0.5935950000000000 0.0267050000000000
0.7007400000000000 0.8464300000000000 0.0470150000000000
0.7232950000000000 0.8435950000000000 0.0267050000000000
0.7992600000000001 0.6535700000000001 0.0470150000000000
0.7767050000000000 0.6564050000000000 0.0267050000000000
0.5931250000000000 0.5259250000000000 0.0281700000000000
0.5969949999999999 0.5484000000000000 0.0484000000000000
0.8431250000000001 0.7218300000000000 0.0259250000000000
0.8469949999999999 0.7016000000000000 0.0484000000000000
0.6568750000000000 0.7781700000000000 0.0259250000000000
0.6530050000000001 0.7984000000000000 0.0484000000000000
0.9068749999999999 0.9740750000000000 0.0281700000000000
0.9030049999999999 0.9516000000000000 0.0484000000000000
0.6535700000000000 0.9529850000000000 0.2007400000000000
0.6564049999999999 0.9732950000000000 0.2232950000000000
0.8464299999999999 0.9529850000000000 0.2992600000000000
0.8435949999999999 0.9732950000000000 0.2767050000000000
0.5931250000000000 0.9740750000000000 0.4718300000000000
0.5969949999999999 0.9516000000000000 0.4516000000000000
0.8431250000000001 0.7781700000000000 0.4740750000000000
0.8469949999999999 0.7984000000000000 0.4516000000000000
0.6568750000000000 0.7218300000000000 0.4740750000000000
0.6530050000000001 0.7016000000000000 0.4516000000000000
0.5964300000000001 0.7992600000000001 0.2970150000000000
0.5935950000000000 0.7767050000000000 0.2767050000000000
0.9035700000000001 0.7992600000000001 0.2029850000000000
0.9064050000000000 0.7767050000000000 0.2232950000000000
0.5964300000000001 0.7007400000000000 0.2029850000000000
0.5935950000000000 0.7232950000000000 0.2232950000000000
0.9035700000000001 0.7007400000000000 0.2970150000000000
0.9064050000000000 0.7232950000000000 0.2767050000000000
0.6535700000000001 0.5470150000000000 0.2992600000000000
0.6564050000000000 0.5267050000000000 0.2767050000000000
0.8464300000000000 0.5470150000000000 0.2007400000000000
0.8435950000000000 0.5267050000000000 0.2232950000000000
0.7218300000000000 0.5259250000000000 0.3431250000000000
0.7016000000000000 0.5484000000000000 0.3469950000000001
0.5259250000000000 0.5281700000000000 0.0931250000000000
0.5484000000000000 0.5484000000000000 0.0969950000000000
0.5470150000000000 0.7007400000000000 0.3464300000000000
0.5267050000000001 0.7232950000000000 0.3435950000000000
0.5470150000000000 0.7992600000000001 0.1535700000000000
0.5267050000000001 0.7767050000000000 0.1564050000000000
0.5259250000000000 0.9718300000000000 0.4068750000000000
0.5483999999999999 0.9516000000000000 0.4030049999999999
0.7218299999999999 0.9740750000000000 0.1568750000000000
0.7015999999999999 0.9516000000000000 0.1530050000000000
0.7781699999999999 0.9740750000000000 0.3431250000000000
0.7983999999999999 0.9516000000000000 0.3469950000000001
0.9740749999999999 0.9718300000000000 0.0931250000000000
0.9515999999999999 0.9516000000000000 0.0969950000000000
0.9529850000000000 0.7992600000000001 0.3464300000000000
0.9732950000000000 0.7767050000000000 0.3435950000000000
0.9529850000000000 0.7007400000000000 0.1535700000000000
0.9732950000000000 0.7232950000000000 0.1564050000000000
0.9740750000000000 0.5281700000000000 0.4068750000000000
0.9516000000000000 0.5484000000000000 0.4030049999999999
0.7781700000000000 0.5259250000000000 0.1568750000000000
0.7984000000000000 0.5484000000000000 0.1530050000000000
0.7992600000000001 0.7029850000000000 0.4035700000000000
0.7767050000000000 0.7232950000000000 0.4064050000000001
0.7992600000000001 0.7970150000000000 0.0964300000000000
0.7767050000000000 0.7767050000000000 0.0935950000000000
0.7007400000000000 0.7970150000000000 0.4035700000000000
0.7232950000000000 0.7767050000000000 0.4064050000000001
0.7007400000000000 0.7029850000000000 0.0964300000000000
0.7232950000000000 0.7232950000000000 0.0935950000000000
0.9068750000000000 0.5259250000000000 0.4718300000000000
0.9030050000000001 0.5484000000000000 0.4516000000000000
0.7007399999999999 0.6535700000000000 0.9529850000000000
0.7232949999999999 0.6564049999999999 0.9732950000000000
0.7992600000000000 0.8464299999999999 0.9529850000000000
0.7767049999999999 0.8435949999999999 0.9732950000000000
0.7781700000000000 0.5931250000000001 0.7759250000000000
0.7984000000000000 0.5969950000000001 0.7984000000000000
0.7218299999999999 0.9068750000000000 0.7759250000000000
0.7016000000000000 0.9030050000000001 0.7984000000000000
0.7218300000000000 0.5931250000000001 0.7240750000000000
0.7016000000000000 0.5969950000000001 0.7016000000000000
0.7781699999999999 0.9068750000000000 0.7240750000000000
0.7984000000000000 0.9030050000000001 0.7016000000000000
0.9740750000000000 0.6568750000000000 0.7218300000000000
0.9516000000000000 0.6530050000000001 0.7016000000000000
0.9740750000000000 0.8431250000000001 0.7781700000000000
0.9516000000000000 0.8469949999999999 0.7984000000000000
0.9529850000000000 0.9035700000000001 0.5492600000000000
0.9732950000000000 0.9064050000000000 0.5267050000000000
0.9529849999999999 0.5964300000000000 0.9507400000000000
0.9732949999999999 0.5935949999999999 0.9732950000000000
0.5470150000000000 0.9035700000000000 0.9507400000000000
0.5267050000000001 0.9064049999999999 0.9732950000000000
0.5259250000000001 0.6568750000000000 0.7781700000000000
0.5484000000000001 0.6530050000000001 0.7984000000000000
0.5259250000000001 0.8431250000000001 0.7218300000000000
0.5484000000000001 0.8469949999999999 0.7016000000000000
0.5470150000000000 0.5964300000000000 0.5492600000000000
0.5267050000000001 0.5935950000000000 0.5267050000000000
0.7007400000000000 0.8464300000000000 0.5470150000000000
0.7232950000000000 0.8435950000000000 0.5267050000000000
0.7992600000000001 0.6535700000000001 0.5470150000000000
0.7767050000000000 0.6564050000000000 0.5267050000000000
0.5931250000000000 0.5259250000000000 0.5281700000000000
0.5969949999999999 0.5484000000000000 0.5484000000000000
0.8431250000000001 0.7218300000000000 0.5259250000000000
0.8469949999999999 0.7016000000000000 0.5484000000000000
0.6568750000000000 0.7781700000000000 0.5259250000000000
0.6530050000000001 0.7984000000000000 0.5484000000000000
0.9068749999999999 0.9740750000000000 0.5281700000000000
0.9030049999999999 0.9516000000000000 0.5484000000000000
0.6535700000000000 0.9529850000000000 0.7007400000000000
0.6564049999999999 0.9732950000000000 0.7232950000000000
0.8464299999999999 0.9529850000000000 0.7992600000000001
0.8435949999999999 0.9732950000000000 0.7767050000000000
0.5931249999999999 0.9740749999999999 0.9718300000000000
0.5969949999999998 0.9515999999999999 0.9516000000000000
0.8431250000000000 0.7781699999999999 0.9740750000000000
0.8469949999999998 0.7983999999999999 0.9516000000000000
0.6568749999999999 0.7218299999999999 0.9740750000000000
0.6530049999999999 0.7015999999999999 0.9516000000000000
0.5964300000000001 0.7992600000000001 0.7970150000000000
0.5935950000000001 0.7767050000000000 0.7767050000000000
0.9035700000000001 0.7992600000000001 0.7029850000000000
0.9064050000000000 0.7767050000000000 0.7232950000000000
0.5964300000000001 0.7007400000000000 0.7029850000000000
0.5935950000000001 0.7232950000000000 0.7232950000000000
0.9035700000000001 0.7007400000000000 0.7970150000000000
0.9064050000000000 0.7232950000000000 0.7767050000000000
0.6535700000000001 0.5470150000000000 0.7992600000000001
0.6564050000000000 0.5267050000000001 0.7767050000000000
0.8464300000000000 0.5470150000000000 0.7007400000000000
0.8435950000000000 0.5267050000000001 0.7232950000000000
0.7218300000000000 0.5259250000000001 0.8431250000000001
0.7016000000000000 0.5484000000000000 0.8469949999999999
0.5259250000000001 0.5281700000000000 0.5931250000000000
0.5484000000000000 0.5484000000000000 0.5969949999999999
0.5470150000000001 0.7007400000000000 0.8464300000000000
0.5267050000000002 0.7232950000000000 0.8435950000000000
0.5470150000000001 0.7992600000000001 0.6535700000000001
0.5267050000000002 0.7767050000000000 0.6564050000000000
0.5259249999999999 0.9718299999999999 0.9068750000000000
0.5484000000000000 0.9516000000000000 0.9030050000000001
0.7218299999999999 0.9740750000000000 0.6568750000000000
0.7015999999999999 0.9516000000000000 0.6530050000000001
0.7781699999999999 0.9740750000000000 0.8431250000000001
0.7983999999999999 0.9516000000000000 0.8469949999999999
0.9740749999999999 0.9718300000000000 0.5931250000000000
0.9515999999999999 0.9516000000000000 0.5969949999999999
0.9529850000000000 0.7992600000000001 0.8464300000000000
0.9732950000000000 0.7767050000000000 0.8435950000000000
0.9529850000000000 0.7007400000000000 0.6535700000000001
0.9732950000000000 0.7232950000000000 0.6564050000000000
0.9740749999999999 0.5281699999999999 0.9068750000000000
0.9516000000000000 0.5484000000000000 0.9030050000000001
0.7781700000000000 0.5259250000000001 0.6568750000000000
0.7984000000000000 0.5484000000000000 0.6530050000000001
0.7992600000000001 0.7029850000000000 0.9035700000000001
0.7767050000000000 0.7232950000000000 0.9064050000000000
0.7992600000000001 0.7970150000000000 0.5964300000000000
0.7767050000000000 0.7767050000000000 0.5935950000000000
0.7007400000000000 0.7970150000000000 0.9035700000000001
0.7232950000000000 0.7767050000000000 0.9064050000000000
0.7007400000000000 0.7029850000000000 0.5964300000000000
0.7232950000000000 0.7232950000000000 0.5935950000000000
0.9068749999999999 0.5259250000000000 0.9718300000000000
0.9030049999999999 0.5483999999999999 0.9516000000000000
0.2473800000000000 0.1270800000000000 0.4544450000000000
0.2242450000000000 0.1076850000000000 0.4544750000000000
0.2526200000000001 0.3729199999999999 0.4544450000000000
0.2757550000000000 0.3923150000000000 0.4544750000000000
0.2756250000000001 0.1421800000000000 0.2949100000000000
0.2524800000000000 0.1228300000000000 0.2961800000000000
0.2243750000000000 0.3578200000000000 0.2949100000000000
0.2475200000000000 0.3771700000000001 0.2961800000000000
0.2243750000000000 0.1421800000000000 0.2050900000000000
0.2475200000000000 0.1228300000000000 0.2038200000000000
0.2756250000000001 0.3578200000000000 0.2050900000000000
0.2524800000000000 0.3771700000000001 0.2038200000000000
0.4746650000000000 0.1074400000000000 0.2040450000000000
0.4975200000000000 0.1271700000000000 0.2038200000000000
0.4746650000000000 0.3925600000000000 0.2959550000000000
0.4975200000000000 0.3728300000000000 0.2961800000000000
0.4976700000000000 0.3767000000000000 0.0466000000000000
0.4742450000000000 0.3576850000000000 0.0455250000000000
0.4976699999999999 0.1233000000000000 0.4534000000000000
0.4742450000000000 0.1423150000000000 0.4544750000000000
0.0023300000000000 0.3766999999999999 0.4534000000000000
0.0257550000000000 0.3576849999999999 0.4544750000000000
0.0253350000000000 0.1074400000000000 0.2959550000000000
0.0024800000000000 0.1271700000000000 0.2961800000000000
0.0253350000000000 0.3925600000000000 0.2040450000000000
0.0024800000000000 0.3728300000000000 0.2038200000000000
0.0023300000000000 0.1233000000000000 0.0466000000000000
0.0257550000000000 0.1423150000000000 0.0455250000000000
0.2473800000000000 0.3729200000000000 0.0455550000000000
0.2242450000000000 0.3923150000000000 0.0455250000000000
0.2526200000000000 0.1270800000000000 0.0455550000000000
0.2757550000000000 0.1076850000000000 0.0455250000000000
0.1421800000000000 0.0449100000000000 0.0256250000000000
0.1228300000000000 0.0461800000000000 0.0024800000000000
0.3925600000000000 0.2040450000000000 0.0253350000000000
0.3728300000000000 0.2038200000000000 0.0024800000000000
0.1074400000000000 0.2959550000000000 0.0253350000000000
0.1271700000000000 0.2961800000000000 0.0024800000000000
0.3578200000000000 0.4550900000000000 0.0256250000000000
0.3771700000000000 0.4538200000000000 0.0024800000000000
0.1270800000000000 0.4544450000000000 0.2473800000000000
0.1076850000000000 0.4544750000000000 0.2242450000000000
0.3729199999999999 0.4544450000000000 0.2526200000000000
0.3923150000000000 0.4544750000000000 0.2757550000000000
0.1421800000000000 0.4550899999999999 0.4743750000000000
0.1228300000000000 0.4538199999999999 0.4975200000000000
0.3925600000000000 0.2959550000000000 0.4746650000000000
0.3728299999999999 0.2961799999999999 0.4975200000000000
0.1074400000000000 0.2040450000000000 0.4746650000000000
0.1271700000000000 0.2038200000000000 0.4975200000000000
0.1233000000000000 0.2966000000000000 0.2523300000000000
0.1423150000000000 0.2955250000000000 0.2757550000000000
0.3767000000000000 0.2966000000000000 0.2476700000000000
0.3576850000000000 0.2955250000000000 0.2242450000000000
0.1233000000000000 0.2034000000000000 0.2476700000000000
0.1423150000000000 0.2044750000000000 0.2242450000000000
0.3767000000000000 0.2034000000000000 0.2523300000000000
0.3576850000000000 0.2044750000000000 0.2757550000000000
0.1270800000000000 0.0455550000000000 0.2526200000000000
0.1076850000000000 0.0455250000000000 0.2757550000000000
0.3729200000000000 0.0455550000000000 0.2473800000000000
0.3923150000000000 0.0455250000000000 0.2242450000000000
0.2040450000000000 0.0253350000000000 0.3925600000000000
0.2038200000000000 0.0024800000000000 0.3728300000000000
0.0449100000000000 0.0256250000000000 0.1421800000000000
0.0461800000000000 0.0024800000000000 0.1228300000000000
0.0455550000000000 0.2473800000000000 0.3729200000000000
0.0455250000000000 0.2242450000000000 0.3923150000000000
0.0455550000000000 0.2526200000000000 0.1270800000000000
0.0455250000000000 0.2757550000000000 0.1076850000000000
0.0449100000000000 0.4743750000000000 0.3578200000000000
0.0461800000000000 0.4975200000000000 0.3771700000000001
0.2040450000000000 0.4746650000000000 0.1074400000000000
0.2038200000000000 0.4975200000000000 0.1271700000000000
0.2959550000000000 0.4746650000000000 0.3925600000000000
0.2961800000000000 0.4975200000000000 0.3728300000000000
0.4550899999999999 0.4743750000000000 0.1421800000000000
0.4538199999999999 0.4975200000000000 0.1228300000000000
0.4544450000000000 0.2526200000000001 0.3729200000000000
0.4544750000000000 0.2757550000000000 0.3923150000000000
0.4544450000000000 0.2473800000000000 0.1270800000000000
0.4544750000000000 0.2242450000000000 0.1076850000000000
0.4550900000000000 0.0256250000000000 0.3578200000000000
0.4538200000000000 0.0024800000000000 0.3771700000000001
0.2959550000000000 0.0253350000000000 0.1074400000000000
0.2961800000000000 0.0024800000000000 0.1271700000000000
0.2966000000000000 0.2476700000000000 0.3767000000000000
0.2955250000000000 0.2242450000000000 0.3576850000000000
0.2966000000000000 0.2523300000000000 0.1233000000000000
0.2955250000000000 0.2757550000000000 0.1423150000000000
0.2034000000000000 0.2523300000000001 0.3767000000000000
0.2044750000000000 0.2757550000000000 0.3576850000000000
0.2034000000000000 0.2476700000000000 0.1233000000000000
0.2044750000000000 0.2242450000000000 0.1423150000000000
0.3578200000000000 0.0449100000000000 0.4743750000000000
0.3771700000000000 0.0461800000000000 0.4975200000000000
0.2473800000000000 0.1270800000000000 0.9544450000000001
0.2242450000000000 0.1076850000000000 0.9544750000000000
0.2526200000000001 0.3729200000000000 0.9544450000000001
0.2757550000000000 0.3923150000000000 0.9544750000000000
0.2756250000000000 0.1421800000000000 0.7949100000000000
0.2524800000000000 0.1228300000000000 0.7961800000000001
0.2243750000000000 0.3578200000000000 0.7949100000000000
0.2475200000000000 0.3771700000000001 0.7961800000000001
0.2243750000000000 0.1421800000000000 0.7050900000000001
0.2475200000000000 0.1228300000000000 0.7038200000000000
0.2756250000000000 0.3578200000000000 0.7050900000000001
0.2524800000000000 0.3771700000000001 0.7038200000000000
0.4746650000000000 0.1074400000000000 0.7040450000000000
0.4975200000000000 0.1271700000000000 0.7038200000000000
0.4746650000000000 0.3925600000000000 0.7959550000000000
0.4975200000000000 0.3728300000000000 0.7961800000000001
0.4976699999999999 0.3766999999999999 0.5466000000000000
0.4742450000000000 0.3576849999999999 0.5455250000000000
0.4976700000000001 0.1233000000000000 0.9534000000000000
0.4742450000000000 0.1423150000000000 0.9544750000000000
0.0023300000000000 0.3767000000000000 0.9534000000000000
0.0257550000000000 0.3576850000000000 0.9544750000000000
0.0253350000000000 0.1074400000000000 0.7959550000000000
0.0024800000000000 0.1271700000000000 0.7961800000000001
0.0253350000000000 0.3925600000000000 0.7040450000000000
0.0024800000000000 0.3728300000000000 0.7038200000000000
0.0023300000000000 0.1233000000000000 0.5466000000000000
0.0257550000000000 0.1423150000000000 0.5455250000000000
0.2473800000000000 0.3729199999999999 0.5455550000000000
0.2242450000000000 0.3923150000000000 0.5455250000000000
0.2526200000000000 0.1270800000000000 0.5455550000000000
0.2757550000000000 0.1076850000000000 0.5455250000000000
0.1421800000000000 0.0449100000000000 0.5256250000000000
0.1228300000000000 0.0461800000000000 0.5024800000000000
0.3925600000000000 0.2040450000000000 0.5253350000000000
0.3728299999999999 0.2038200000000000 0.5024800000000000
0.1074400000000000 0.2959550000000000 0.5253350000000000
0.1271700000000000 0.2961799999999999 0.5024800000000000
0.3578199999999999 0.4550899999999999 0.5256250000000000
0.3771699999999999 0.4538199999999999 0.5024800000000000
0.1270800000000000 0.4544450000000000 0.7473799999999999
0.1076850000000000 0.4544750000000001 0.7242450000000000
0.3729200000000000 0.4544450000000000 0.7526200000000001
0.3923150000000000 0.4544750000000001 0.7757550000000000
0.1421800000000000 0.4550900000000000 0.9743750000000000
0.1228300000000000 0.4538200000000000 0.9975200000000001
0.3925600000000000 0.2959550000000000 0.9746650000000000
0.3728300000000000 0.2961800000000000 0.9975200000000001
0.1074400000000000 0.2040450000000000 0.9746650000000000
0.1271700000000000 0.2038200000000000 0.9975200000000001
0.1233000000000000 0.2965999999999999 0.7523299999999999
0.1423150000000000 0.2955249999999999 0.7757550000000000
0.3767000000000000 0.2965999999999999 0.7476700000000001
0.3576850000000000 0.2955249999999999 0.7242450000000000
0.1233000000000000 0.2034000000000000 0.7476700000000001
0.1423150000000000 0.2044750000000000 0.7242450000000000
0.3767000000000000 0.2034000000000000 0.7523299999999999
0.3576850000000000 0.2044750000000000 0.7757550000000000
0.1270800000000000 0.0455550000000000 0.7526200000000001
0.1076850000000000 0.0455250000000000 0.7757550000000000
0.3729200000000000 0.0455550000000000 0.7473799999999999
0.3923150000000000 0.0455250000000000 0.7242450000000000
0.2040450000000000 0.0253350000000000 0.8925600000000000
0.2038200000000000 0.0024800000000000 0.8728300000000000
0.0449100000000000 0.0256250000000000 0.6421800000000000
0.0461800000000000 0.0024800000000000 0.6228300000000000
0.0455550000000000 0.2473800000000000 0.8729199999999999
0.0455250000000000 0.2242450000000000 0.8923150000000000
0.0455550000000000 0.2526200000000000 0.6270800000000000
0.0455250000000000 0.2757550000000000 0.6076850000000000
0.0449100000000000 0.4743750000000000 0.8578200000000000
0.0461800000000000 0.4975200000000000 0.8771700000000000
0.2040450000000000 0.4746650000000000 0.6074400000000000
0.2038200000000000 0.4975200000000000 0.6271700000000000
0.2959550000000000 0.4746650000000000 0.8925600000000000
0.2961800000000000 0.4975200000000000 0.8728300000000000
0.4550899999999999 0.4743750000000000 0.6421800000000000
0.4538199999999999 0.4975200000000000 0.6228300000000000
0.4544450000000000 0.2526200000000001 0.8729199999999999
0.4544750000000001 0.2757550000000000 0.8923150000000000
0.4544450000000000 0.2473800000000000 0.6270800000000000
0.4544750000000001 0.2242450000000000 0.6076850000000000
0.4550900000000000 0.0256250000000000 0.8578200000000000
0.4538200000000000 0.0024800000000000 0.8771700000000000
0.2959550000000000 0.0253350000000000 0.6074400000000000
0.2961799999999999 0.0024800000000000 0.6271700000000000
0.2966000000000000 0.2476700000000000 0.8767000000000000
0.2955250000000000 0.2242450000000000 0.8576850000000000
0.2965999999999999 0.2523300000000000 0.6233000000000000
0.2955249999999999 0.2757550000000000 0.6423150000000000
0.2034000000000000 0.2523300000000001 0.8767000000000000
0.2044750000000000 0.2757550000000000 0.8576850000000000
0.2034000000000000 0.2476700000000000 0.6233000000000000
0.2044750000000000 0.2242450000000000 0.6423150000000000
0.3578200000000000 0.0449100000000000 0.9743750000000000
0.3771700000000001 0.0461800000000000 0.9975200000000001
0.2473800000000000 0.6270800000000000 0.4544450000000000
0.2242450000000000 0.6076850000000000 0.4544750000000000
0.2526200000000000 0.8729199999999999 0.4544450000000000
0.2757550000000000 0.8923150000000000 0.4544750000000000
0.2756250000000000 0.6421800000000000 0.2949100000000000
0.2524800000000000 0.6228300000000000 0.2961800000000000
0.2243750000000000 0.8578200000000000 0.2949100000000000
0.2475200000000000 0.8771700000000000 0.2961800000000000
0.2243750000000000 0.6421800000000000 0.2050900000000000
0.2475200000000000 0.6228300000000000 0.2038200000000000
0.2756250000000000 0.8578200000000000 0.2050900000000000
0.2524800000000000 0.8771700000000000 0.2038200000000000
0.4746650000000000 0.6074400000000000 0.2040450000000000
0.4975200000000000 0.6271700000000000 0.2038200000000000
0.4746650000000000 0.8925600000000000 0.2959550000000000
0.4975200000000000 0.8728300000000000 0.2961800000000000
0.4976700000000001 0.8767000000000000 0.0466000000000000
0.4742450000000000 0.8576850000000000 0.0455250000000000
0.4976700000000000 0.6233000000000000 0.4534000000000000
0.4742450000000000 0.6423150000000000 0.4544750000000000
0.0023300000000000 0.8767000000000000 0.4534000000000000
0.0257550000000000 0.8576850000000000 0.4544750000000000
0.0253350000000000 0.6074400000000000 0.2959550000000000
0.0024800000000000 0.6271700000000000 0.2961800000000000
0.0253350000000000 0.8925600000000000 0.2040450000000000
0.0024800000000000 0.8728300000000000 0.2038200000000000
0.0023300000000000 0.6233000000000000 0.0466000000000000
0.0257550000000000 0.6423150000000000 0.0455250000000000
0.2473800000000000 0.8729199999999999 0.0455550000000000
0.2242450000000000 0.8923150000000000 0.0455250000000000
0.2526200000000000 0.6270800000000000 0.0455550000000000
0.2757550000000000 0.6076850000000000 0.0455250000000000
0.1421800000000000 0.5449100000000000 0.0256250000000000
0.1228300000000000 0.5461800000000000 0.0024800000000000
0.3925600000000000 0.7040450000000000 0.0253350000000000
0.3728300000000000 0.7038200000000000 0.0024800000000000
0.1074400000000000 0.7959550000000000 0.0253350000000000
0.1271700000000000 0.7961800000000001 0.0024800000000000
0.3578200000000000 0.9550900000000001 0.0256250000000000
0.3771700000000001 0.9538200000000000 0.0024800000000000
0.1270800000000000 0.9544450000000001 0.2473800000000000
0.1076850000000000 0.9544750000000000 0.2242450000000000
0.3729200000000000 0.9544450000000001 0.2526200000000000
0.3923150000000000 0.9544750000000000 0.2757550000000000
0.1421800000000000 0.9550900000000001 0.4743750000000000
0.1228300000000000 0.9538200000000000 0.4975200000000000
0.3925600000000000 0.7959550000000000 0.4746650000000000
0.3728299999999999 0.7961800000000001 0.4975200000000000
0.1074400000000000 0.7040450000000000 0.4746650000000000
0.1271700000000000 0.7038200000000000 0.4975200000000000
0.1233000000000000 0.7966000000000000 0.2523300000000000
0.1423150000000000 0.7955250000000000 0.2757550000000000
0.3767000000000000 0.7966000000000000 0.2476700000000000
0.3576850000000000 0.7955250000000000 0.2242450000000000
0.1233000000000000 0.7034000000000000 0.2476700000000000
0.1423150000000000 0.7044750000000000 0.2242450000000000
0.3767000000000000 0.7034000000000000 0.2523300000000000
0.3576850000000000 0.7044750000000000 0.2757550000000000
0.1270800000000000 0.5455550000000000 0.2526200000000000
0.1076850000000000 0.5455250000000000 0.2757550000000000
0.3729199999999999 0.5455550000000000 0.2473800000000000
0.3923150000000000 0.5455250000000000 0.2242450000000000
0.2040450000000000 0.5253350000000000 0.3925600000000000
0.2038200000000000 0.5024800000000000 0.3728300000000000
0.0449100000000000 0.5256250000000000 0.1421800000000000
0.0461800000000000 0.5024800000000000 0.1228300000000000
0.0455550000000000 0.7473799999999999 0.3729200000000000
0.0455250000000000 0.7242450000000000 0.3923150000000000
0.0455550000000000 0.7526200000000001 0.1270800000000000
0.0455250000000000 0.7757550000000000 0.1076850000000000
0.0449100000000000 0.9743750000000000 0.3578200000000000
0.0461800000000000 0.9975200000000001 0.3771700000000001
0.2040450000000000 0.9746650000000000 0.1074400000000000
0.2038200000000000 0.9975200000000001 0.1271700000000000
0.2959550000000001 0.9746650000000000 0.3925600000000000
0.2961800000000001 0.9975200000000001 0.3728300000000000
0.4550900000000000 0.9743750000000000 0.1421800000000000
0.4538200000000000 0.9975200000000001 0.1228300000000000
0.4544450000000000 0.7526200000000001 0.3729200000000000
0.4544750000000001 0.7757550000000000 0.3923150000000000
0.4544450000000000 0.7473799999999999 0.1270800000000000
0.4544750000000001 0.7242450000000000 0.1076850000000000
0.4550899999999999 0.5256250000000000 0.3578200000000000
0.4538199999999999 0.5024800000000000 0.3771700000000001
0.2959550000000000 0.5253350000000000 0.1074400000000000
0.2961799999999999 0.5024800000000000 0.1271700000000000
0.2966000000000000 0.7476700000000001 0.3767000000000000
0.2955250000000000 0.7242450000000000 0.3576850000000000
0.2965999999999999 0.7523299999999999 0.1233000000000000
0.2955249999999999 0.7757550000000000 0.1423150000000000
0.2034000000000000 0.7523299999999999 0.3767000000000000
0.2044750000000000 0.7757550000000000 0.3576850000000000
0.2034000000000000 0.7476700000000001 0.1233000000000000
0.2044750000000000 0.7242450000000000 0.1423150000000000
0.3578199999999999 0.5449100000000000 0.4743750000000000
0.3771699999999999 0.5461800000000000 0.4975200000000000
0.2473800000000000 0.6270799999999999 0.9544450000000001
0.2242450000000000 0.6076850000000000 0.9544750000000000
0.2526200000000001 0.8729199999999998 0.9544450000000001
0.2757550000000000 0.8923149999999999 0.9544750000000000
0.2756250000000000 0.6421800000000000 0.7949100000000000
0.2524799999999999 0.6228300000000000 0.7961800000000001
0.2243750000000000 0.8578200000000000 0.7949100000000000
0.2475200000000000 0.8771700000000000 0.7961800000000001
0.2243750000000000 0.6421800000000000 0.7050900000000001
0.2475200000000000 0.6228300000000000 0.7038200000000000
0.2756250000000000 0.8578200000000000 0.7050900000000001
0.2524800000000000 0.8771700000000000 0.7038200000000000
0.4746650000000001 0.6074400000000001 0.7040450000000000
0.4975200000000001 0.6271700000000000 0.7038200000000000
0.4746650000000001 0.8925600000000000 0.7959550000000000
0.4975200000000001 0.8728300000000000 0.7961800000000001
0.4976700000000000 0.8767000000000000 0.5466000000000000
0.4742450000000000 0.8576850000000000 0.5455250000000000
0.4976700000000001 0.6232999999999999 0.9534000000000000
0.4742450000000000 0.6423149999999999 0.9544750000000000
0.0023300000000000 0.8766999999999999 0.9534000000000000
0.0257550000000000 0.8576849999999999 0.9544750000000000
0.0253350000000000 0.6074400000000001 0.7959550000000000
0.0024800000000000 0.6271700000000000 0.7961800000000001
0.0253350000000000 0.8925600000000000 0.7040450000000000
0.0024800000000000 0.8728300000000000 0.7038200000000000
0.0023300000000000 0.6233000000000000 0.5466000000000000
0.0257550000000000 0.6423150000000000 0.5455250000000000
0.2473800000000000 0.8729199999999999 0.5455550000000000
0.2242450000000000 0.8923150000000000 0.5455250000000000
0.2526200000000000 0.6270800000000000 0.5455550000000000
0.2757549999999999 0.6076850000000000 0.5455250000000000
0.1421800000000000 0.5449100000000000 0.5256250000000000
0.1228300000000000 0.5461800000000000 0.5024800000000000
0.3925600000000000 0.7040450000000000 0.5253350000000000
0.3728299999999999 0.7038200000000000 0.5024800000000000
0.1074400000000000 0.7959550000000000 0.5253350000000000
0.1271700000000000 0.7961800000000001 0.5024800000000000
0.3578200000000000 0.9550900000000001 0.5256250000000000
0.3771700000000000 0.9538200000000000 0.5024800000000000
0.1270800000000000 0.9544450000000001 0.7473799999999999
0.1076850000000000 0.9544750000000000 0.7242450000000000
0.3729200000000000 0.9544450000000001 0.7526200000000001
0.3923150000000001 0.9544750000000000 0.7757550000000000
0.1421800000000000 0.9550900000000000 0.9743750000000000
0.1228300000000000 0.9538199999999999 0.9975200000000001
0.3925600000000000 0.7959549999999999 0.9746650000000000
0.3728300000000000 0.7961800000000000 0.9975200000000001
0.1074400000000000 0.7040449999999999 0.9746650000000000
0.1271700000000000 0.7038199999999999 0.9975200000000001
0.1233000000000000 0.7966000000000000 0.7523299999999999
0.1423150000000000 0.7955250000000000 0.7757550000000000
0.3767000000000000 0.7966000000000000 0.7476700000000001
0.3576850000000000 0.7955250000000000 0.7242450000000000
0.1233000000000000 0.7034000000000000 0.7476700000000001
0.1423150000000000 0.7044750000000000 0.7242450000000000
0.3767000000000000 0.7034000000000000 0.7523299999999999
0.3576850000000000 0.7044750000000000 0.7757550000000000
0.1270800000000000 0.5455550000000001 0.7526200000000001
0.1076850000000000 0.5455250000000001 0.7757550000000000
0.3729200000000000 0.5455550000000001 0.7473799999999999
0.3923150000000000 0.5455250000000001 0.7242450000000000
0.2040450000000000 0.5253350000000001 0.8925600000000000
0.2038200000000000 0.5024800000000001 0.8728300000000000
0.0449100000000000 0.5256250000000001 0.6421800000000000
0.0461800000000000 0.5024800000000001 0.6228300000000000
0.0455550000000000 0.7473799999999999 0.8729199999999999
0.0455250000000000 0.7242450000000000 0.8923150000000000
0.0455550000000000 0.7526200000000001 0.6270800000000000
0.0455250000000000 0.7757550000000000 0.6076850000000000
0.0449100000000000 0.9743750000000000 0.8578200000000000
0.0461800000000000 0.9975200000000001 0.8771700000000000
0.2040450000000000 0.9746650000000000 0.6074400000000000
0.2038200000000000 0.9975200000000001 0.6271700000000000
0.2959550000000001 0.9746650000000000 0.8925600000000000
0.2961800000000000 0.9975200000000001 0.8728300000000000
0.4550900000000000 0.9743750000000000 0.6421800000000000
0.4538200000000001 0.9975200000000001 0.6228300000000000
0.4544450000000000 0.7526200000000001 0.8729199999999999
0.4544750000000001 0.7757550000000000 0.8923150000000000
0.4544450000000000 0.7473799999999999 0.6270800000000000
0.4544750000000001 0.7242450000000000 0.6076850000000000
0.4550899999999999 0.5256250000000001 0.8578200000000000
0.4538199999999999 0.5024800000000001 0.8771700000000000
0.2959550000000000 0.5253350000000001 0.6074400000000000
0.2961799999999999 0.5024800000000001 0.6271700000000000
0.2966000000000000 0.7476700000000001 0.8767000000000000
0.2955250000000000 0.7242450000000000 0.8576850000000000
0.2965999999999999 0.7523299999999999 0.6233000000000000
0.2955249999999999 0.7757550000000000 0.6423150000000000
0.2034000000000000 0.7523299999999999 0.8767000000000000
0.2044750000000000 0.7757550000000000 0.8576850000000000
0.2034000000000000 0.7476700000000001 0.6233000000000000
0.2044750000000000 0.7242450000000000 0.6423150000000000
0.3578200000000000 0.5449100000000000 0.9743750000000000
0.3771700000000000 0.5461800000000000 0.9975200000000001
0.7473799999999999 0.1270800000000000 0.4544450000000000
0.7242450000000000 0.1076850000000000 0.4544750000000000
0.7526200000000001 0.3729199999999999 0.4544450000000000
0.7757550000000000 0.3923150000000000 0.4544750000000000
0.7756250000000000 0.1421800000000000 0.2949100000000000
0.7524799999999999 0.1228300000000000 0.2961800000000000
0.7243750000000000 0.3578200000000000 0.2949100000000000
0.7475200000000001 0.3771700000000001 0.2961800000000000
0.7243750000000000 0.1421800000000000 0.2050900000000000
0.7475200000000001 0.1228300000000000 0.2038200000000000
0.7756250000000000 0.3578200000000000 0.2050900000000000
0.7524799999999999 0.3771700000000001 0.2038200000000000
0.9746650000000000 0.1074400000000000 0.2040450000000000
0.9975200000000001 0.1271700000000000 0.2038200000000000
0.9746650000000000 0.3925600000000000 0.2959550000000000
0.9975200000000001 0.3728300000000000 0.2961800000000000
0.9976700000000001 0.3767000000000000 0.0466000000000000
0.9742450000000000 0.3576850000000000 0.0455250000000000
0.9976700000000001 0.1233000000000000 0.4534000000000000
0.9742450000000000 0.1423150000000000 0.4544750000000000
0.5023300000000001 0.3766999999999999 0.4534000000000000
0.5257550000000000 0.3576849999999999 0.4544750000000000
0.5253350000000000 0.1074400000000000 0.2959550000000000
0.5024800000000000 0.1271700000000000 0.2961800000000000
0.5253350000000000 0.3925600000000000 0.2040450000000000
0.5024800000000000 0.3728300000000000 0.2038200000000000
0.5023300000000001 0.1233000000000000 0.0466000000000000
0.5257550000000000 0.1423150000000000 0.0455250000000000
0.7473799999999999 0.3729200000000000 0.0455550000000000
0.7242450000000000 0.3923150000000000 0.0455250000000000
0.7526200000000001 0.1270800000000000 0.0455550000000000
0.7757550000000000 0.1076850000000000 0.0455250000000000
0.6421800000000000 0.0449100000000000 0.0256250000000000
0.6228300000000000 0.0461800000000000 0.0024800000000000
0.8925600000000000 0.2040450000000000 0.0253350000000000
0.8728300000000000 0.2038200000000000 0.0024800000000000
0.6074400000000000 0.2959550000000000 0.0253350000000000
0.6271700000000000 0.2961800000000000 0.0024800000000000
0.8578200000000000 0.4550900000000000 0.0256250000000000
0.8771700000000000 0.4538200000000000 0.0024800000000000
0.6270800000000000 0.4544450000000000 0.2473800000000000
0.6076850000000000 0.4544750000000000 0.2242450000000000
0.8729199999999999 0.4544450000000000 0.2526200000000000
0.8923150000000000 0.4544750000000000 0.2757550000000000
0.6421800000000000 0.4550899999999999 0.4743750000000000
0.6228300000000000 0.4538199999999999 0.4975200000000000
0.8925600000000000 0.2959550000000000 0.4746650000000000
0.8728300000000000 0.2961799999999999 0.4975200000000000
0.6074400000000000 0.2040450000000000 0.4746650000000000
0.6271700000000000 0.2038200000000000 0.4975200000000000
0.6233000000000000 0.2966000000000000 0.2523300000000000
0.6423150000000000 0.2955250000000000 0.2757550000000000
0.8767000000000000 0.2966000000000000 0.2476700000000000
0.8576850000000000 0.2955250000000000 0.2242450000000000
0.6233000000000000 0.2034000000000000 0.2476700000000000
0.6423150000000000 0.2044750000000000 0.2242450000000000
0.8767000000000000 0.2034000000000000 0.2523300000000000
0.8576850000000000 0.2044750000000000 0.2757550000000000
0.6270800000000000 0.0455550000000000 0.2526200000000000
0.6076850000000000 0.0455250000000000 0.2757550000000000
0.8729199999999999 0.0455550000000000 0.2473800000000000
0.8923150000000000 0.0455250000000000 0.2242450000000000
0.7040450000000000 0.0253350000000000 0.3925600000000000
0.7038200000000000 0.0024800000000000 0.3728300000000000
0.5449100000000000 0.0256250000000000 0.1421800000000000
0.5461800000000000 0.0024800000000000 0.1228300000000000
0.5455550000000000 0.2473800000000000 0.3729200000000000
0.5455250000000000 0.2242450000000000 0.3923150000000000
0.5455550000000000 0.2526200000000000 0.1270800000000000
0.5455250000000000 0.2757550000000000 0.1076850000000000
0.5449100000000000 0.4743750000000000 0.3578200000000000
0.5461800000000000 0.4975200000000000 0.3771700000000001
0.7040450000000000 0.4746650000000000 0.1074400000000000
0.7038200000000000 0.4975200000000000 0.1271700000000000
0.7959550000000000 0.4746650000000000 0.3925600000000000
0.7961800000000001 0.4975200000000000 0.3728300000000000
0.9550900000000001 0.4743750000000000 0.1421800000000000
0.9538200000000000 0.4975200000000000 0.1228300000000000
0.9544450000000001 0.2526200000000001 0.3729200000000000
0.9544750000000000 0.2757550000000000 0.3923150000000000
0.9544450000000001 0.2473800000000000 0.1270800000000000
0.9544750000000000 0.2242450000000000 0.1076850000000000
0.9550900000000001 0.0256250000000000 0.3578200000000000
0.9538200000000000 0.0024800000000000 0.3771700000000001
0.7959550000000000 0.0253350000000000 0.1074400000000000
0.7961800000000001 0.0024800000000000 0.1271700000000000
0.7966000000000000 0.2476700000000000 0.3767000000000000
0.7955250000000000 0.2242450000000000 0.3576850000000000
0.7966000000000000 0.2523300000000000 0.1233000000000000
0.7955250000000000 0.2757550000000000 0.1423150000000000
0.7034000000000000 0.2523300000000001 0.3767000000000000
0.7044750000000000 0.2757550000000000 0.3576850000000000
0.7034000000000000 0.2476700000000000 0.1233000000000000
0.7044750000000000 0.2242450000000000 0.1423150000000000
0.8578200000000000 0.0449100000000000 0.4743750000000000
0.8771700000000000 0.0461800000000000 0.4975200000000000
0.7473799999999998 0.1270800000000000 0.9544450000000001
0.7242449999999999 0.1076850000000000 0.9544750000000000
0.7526200000000000 0.3729200000000000 0.9544450000000001
0.7757549999999999 0.3923150000000000 0.9544750000000000
0.7756250000000000 0.1421800000000000 0.7949100000000000
0.7524799999999999 0.1228300000000000 0.7961800000000001
0.7243750000000000 0.3578200000000000 0.7949100000000000
0.7475200000000001 0.3771700000000001 0.7961800000000001
0.7243750000000000 0.1421800000000000 0.7050900000000001
0.7475200000000001 0.1228300000000000 0.7038200000000000
0.7756250000000000 0.3578200000000000 0.7050900000000001
0.7524799999999999 0.3771700000000001 0.7038200000000000
0.9746650000000000 0.1074400000000000 0.7040450000000000
0.9975200000000001 0.1271700000000000 0.7038200000000000
0.9746650000000000 0.3925600000000000 0.7959550000000000
0.9975200000000001 0.3728300000000000 0.7961800000000001
0.9976700000000001 0.3766999999999999 0.5466000000000000
0.9742450000000000 0.3576849999999999 0.5455250000000000
0.9976699999999999 0.1233000000000000 0.9534000000000000
0.9742449999999999 0.1423150000000000 0.9544750000000000
0.5023300000000001 0.3767000000000000 0.9534000000000000
0.5257550000000000 0.3576850000000000 0.9544750000000000
0.5253350000000001 0.1074400000000000 0.7959550000000000
0.5024800000000001 0.1271700000000000 0.7961800000000001
0.5253350000000001 0.3925600000000000 0.7040450000000000
0.5024800000000001 0.3728300000000000 0.7038200000000000
0.5023300000000001 0.1233000000000000 0.5466000000000000
0.5257550000000000 0.1423150000000000 0.5455250000000000
0.7473799999999999 0.3729199999999999 0.5455550000000000
0.7242450000000000 0.3923150000000000 0.5455250000000000
0.7526200000000001 0.1270800000000000 0.5455550000000000
0.7757550000000000 0.1076850000000000 0.5455250000000000
0.6421800000000000 0.0449100000000000 0.5256250000000000
0.6228300000000000 0.0461800000000000 0.5024800000000000
0.8925600000000000 0.2040450000000000 0.5253350000000000
0.8728300000000000 0.2038200000000000 0.5024800000000000
0.6074400000000000 0.2959550000000000 0.5253350000000000
0.6271700000000000 0.2961799999999999 0.5024800000000000
0.8578200000000000 0.4550899999999999 0.5256250000000000
0.8771700000000000 0.4538199999999999 0.5024800000000000
0.6270800000000000 0.4544450000000000 0.7473799999999999
0.6076850000000001 0.4544750000000001 0.7242450000000000
0.8729199999999999 0.4544450000000000 0.7526200000000001
0.8923150000000000 0.4544750000000001 0.7757550000000000
0.6421799999999999 0.4550900000000000 0.9743750000000000
0.6228299999999999 0.4538200000000000 0.9975200000000001
0.8925599999999999 0.2959550000000000 0.9746650000000000
0.8728299999999999 0.2961800000000000 0.9975200000000001
0.6074400000000000 0.2040450000000000 0.9746650000000000
0.6271699999999999 0.2038200000000000 0.9975200000000001
0.6233000000000000 0.2965999999999999 0.7523299999999999
0.6423150000000000 0.2955249999999999 0.7757550000000000
0.8767000000000000 0.2965999999999999 0.7476700000000001
0.8576850000000000 0.2955249999999999 0.7242450000000000
0.6233000000000000 0.2034000000000000 0.7476700000000001
0.6423150000000000 0.2044750000000000 0.7242450000000000
0.8767000000000000 0.2034000000000000 0.7523299999999999
0.8576850000000000 0.2044750000000000 0.7757550000000000
0.6270800000000000 0.0455550000000000 0.7526200000000001
0.6076850000000001 0.0455250000000000 0.7757550000000000
0.8729199999999999 0.0455550000000000 0.7473799999999999
0.8923150000000000 0.0455250000000000 0.7242450000000000
0.7040450000000000 0.0253350000000000 0.8925600000000000
0.7038200000000000 0.0024800000000000 0.8728300000000000
0.5449100000000001 0.0256250000000000 0.6421800000000000
0.5461800000000001 0.0024800000000000 0.6228300000000000
0.5455550000000001 0.2473800000000000 0.8729199999999999
0.5455250000000001 0.2242450000000000 0.8923150000000000
0.5455550000000001 0.2526200000000000 0.6270800000000000
0.5455250000000001 0.2757550000000000 0.6076850000000000
0.5449100000000001 0.4743750000000000 0.8578200000000000
0.5461800000000001 0.4975200000000000 0.8771700000000000
0.7040450000000000 0.4746650000000000 0.6074400000000000
0.7038200000000000 0.4975200000000000 0.6271700000000000
0.7959550000000000 0.4746650000000000 0.8925600000000000
0.7961800000000001 0.4975200000000000 0.8728300000000000
0.9550900000000001 0.4743750000000000 0.6421800000000000
0.9538200000000000 0.4975200000000000 0.6228300000000000
0.9544450000000001 0.2526200000000001 0.8729199999999999
0.9544750000000000 0.2757550000000000 0.8923150000000000
0.9544450000000001 0.2473800000000000 0.6270800000000000
0.9544750000000000 0.2242450000000000 0.6076850000000000
0.9550900000000001 0.0256250000000000 0.8578200000000000
0.9538200000000000 0.0024800000000000 0.8771700000000000
0.7959550000000000 0.0253350000000000 0.6074400000000000
0.7961800000000001 0.0024800000000000 0.6271700000000000
0.7966000000000000 0.2476700000000000 0.8767000000000000
0.7955250000000000 0.2242450000000000 0.8576850000000000
0.7966000000000000 0.2523300000000000 0.6233000000000000
0.7955250000000000 0.2757550000000000 0.6423150000000000
0.7034000000000000 0.2523300000000001 0.8767000000000000
0.7044750000000000 0.2757550000000000 0.8576850000000000
0.7034000000000000 0.2476700000000000 0.6233000000000000
0.7044750000000000 0.2242450000000000 0.6423150000000000
0.8578199999999999 0.0449100000000000 0.9743750000000000
0.8771699999999999 0.0461800000000000 0.9975200000000001
0.7473799999999999 0.6270800000000000 0.4544450000000000
0.7242450000000000 0.6076850000000000 0.4544750000000000
0.7526200000000001 0.8729199999999999 0.4544450000000000
0.7757550000000000 0.8923150000000000 0.4544750000000000
0.7756250000000000 0.6421800000000000 0.2949100000000000
0.7524799999999999 0.6228300000000000 0.2961800000000000
0.7243750000000000 0.8578200000000000 0.2949100000000000
0.7475200000000001 0.8771700000000000 0.2961800000000000
0.7243750000000000 0.6421800000000000 0.2050900000000000
0.7475200000000001 0.6228300000000000 0.2038200000000000
0.7756250000000000 0.8578200000000000 0.2050900000000000
0.7524799999999999 0.8771700000000000 0.2038200000000000
0.9746650000000000 0.6074400000000000 0.2040450000000000
0.9975200000000001 0.6271700000000000 0.2038200000000000
0.9746650000000000 0.8925600000000000 0.2959550000000000
0.9975200000000001 0.8728300000000000 0.2961800000000000
0.9976700000000001 0.8767000000000000 0.0466000000000000
0.9742450000000000 0.8576850000000000 0.0455250000000000
0.9976700000000001 0.6233000000000000 0.4534000000000000
0.9742450000000000 0.6423150000000000 0.4544750000000000
0.5023300000000002 0.8767000000000000 0.4534000000000000
0.5257550000000001 0.8576850000000000 0.4544750000000000
0.5253350000000001 0.6074400000000000 0.2959550000000000
0.5024800000000001 0.6271700000000000 0.2961800000000000
0.5253350000000001 0.8925600000000000 0.2040450000000000
0.5024800000000001 0.8728300000000000 0.2038200000000000
0.5023300000000002 0.6233000000000000 0.0466000000000000
0.5257550000000001 0.6423150000000000 0.0455250000000000
0.7473799999999999 0.8729199999999999 0.0455550000000000
0.7242450000000000 0.8923150000000000 0.0455250000000000
0.7526200000000001 0.6270800000000000 0.0455550000000000
0.7757550000000000 0.6076850000000000 0.0455250000000000
0.6421800000000000 0.5449100000000000 0.0256250000000000
0.6228300000000000 0.5461800000000000 0.0024800000000000
0.8925600000000000 0.7040450000000000 0.0253350000000000
0.8728300000000000 0.7038200000000000 0.0024800000000000
0.6074400000000001 0.7959550000000000 0.0253350000000000
0.6271700000000000 0.7961800000000001 0.0024800000000000
0.8578199999999999 0.9550900000000001 0.0256250000000000
0.8771699999999999 0.9538200000000000 0.0024800000000000
0.6270799999999999 0.9544450000000001 0.2473800000000000
0.6076850000000000 0.9544750000000000 0.2242450000000000
0.8729199999999998 0.9544450000000001 0.2526200000000000
0.8923149999999999 0.9544750000000000 0.2757550000000000
0.6421799999999999 0.9550900000000001 0.4743750000000000
0.6228299999999999 0.9538200000000000 0.4975200000000000
0.8925600000000000 0.7959550000000000 0.4746650000000000
0.8728300000000000 0.7961800000000001 0.4975200000000000
0.6074400000000001 0.7040450000000000 0.4746650000000000
0.6271700000000000 0.7038200000000000 0.4975200000000000
0.6233000000000000 0.7966000000000000 0.2523300000000000
0.6423150000000000 0.7955250000000000 0.2757550000000000
0.8767000000000000 0.7966000000000000 0.2476700000000000
0.8576850000000000 0.7955250000000000 0.2242450000000000
0.6233000000000000 0.7034000000000000 0.2476700000000000
0.6423150000000000 0.7044750000000000 0.2242450000000000
0.8767000000000000 0.7034000000000000 0.2523300000000000
0.8576850000000000 0.7044750000000000 0.2757550000000000
0.6270800000000000 0.5455550000000000 0.2526200000000000
0.6076850000000000 0.5455250000000000 0.2757550000000000
0.8729199999999999 0.5455550000000000 0.2473800000000000
0.8923150000000000 0.5455250000000000 0.2242450000000000
0.7040450000000000 0.5253350000000000 0.3925600000000000
0.7038200000000000 0.5024800000000000 0.3728300000000000
0.5449100000000000 0.5256250000000000 0.1421800000000000
0.5461800000000000 0.5024800000000000 0.1228300000000000
0.5455550000000001 0.7473799999999999 0.3729200000000000
0.5455250000000001 0.7242450000000000 0.3923150000000000
0.5455550000000001 0.7526200000000001 0.1270800000000000
0.5455250000000001 0.7757550000000000 0.1076850000000000
0.5449100000000000 0.9743750000000000 0.3578200000000000
0.5461800000000000 0.9975200000000001 0.3771700000000001
0.7040449999999999 0.9746650000000000 0.1074400000000000
0.7038199999999999 0.9975200000000001 0.1271700000000000
0.7959549999999999 0.9746650000000000 0.3925600000000000
0.7961800000000000 0.9975200000000001 0.3728300000000000
0.9550900000000000 0.9743750000000000 0.1421800000000000
0.9538199999999999 0.9975200000000001 0.1228300000000000
0.9544450000000001 0.7526200000000001 0.3729200000000000
0.9544750000000000 0.7757550000000000 0.3923150000000000
0.9544450000000001 0.7473799999999999 0.1270800000000000
0.9544750000000000 0.7242450000000000 0.1076850000000000
0.9550900000000001 0.5256250000000000 0.3578200000000000
0.9538200000000000 0.5024800000000000 0.3771700000000001
0.7959550000000000 0.5253350000000000 0.1074400000000000
0.7961800000000001 0.5024800000000000 0.1271700000000000
0.7966000000000000 0.7476700000000001 0.3767000000000000
0.7955250000000000 0.7242450000000000 0.3576850000000000
0.7966000000000000 0.7523299999999999 0.1233000000000000
0.7955250000000000 0.7757550000000000 0.1423150000000000
0.7034000000000000 0.7523299999999999 0.3767000000000000
0.7044750000000000 0.7757550000000000 0.3576850000000000
0.7034000000000000 0.7476700000000001 0.1233000000000000
0.7044750000000000 0.7242450000000000 0.1423150000000000
0.8578200000000000 0.5449100000000000 0.4743750000000000
0.8771700000000000 0.5461800000000000 0.4975200000000000
0.7473799999999998 0.6270799999999999 0.9544450000000001
0.7242449999999999 0.6076850000000000 0.9544750000000000
0.7526200000000000 0.8729199999999998 0.9544450000000001
0.7757549999999999 0.8923149999999999 0.9544750000000000
0.7756250000000000 0.6421800000000000 0.7949100000000000
0.7524799999999999 0.6228300000000000 0.7961800000000001
0.7243750000000000 0.8578200000000000 0.7949100000000000
0.7475200000000001 0.8771700000000000 0.7961800000000001
0.7243750000000000 0.6421800000000000 0.7050900000000001
0.7475200000000001 0.6228300000000000 0.7038200000000000
0.7756250000000000 0.8578200000000000 0.7050900000000001
0.7524799999999999 0.8771700000000000 0.7038200000000000
0.9746650000000000 0.6074400000000001 0.7040450000000000
0.9975200000000001 0.6271700000000000 0.7038200000000000
0.9746650000000000 0.8925600000000000 0.7959550000000000
0.9975200000000001 0.8728300000000000 0.7961800000000001
0.9976700000000001 0.8767000000000000 0.5466000000000000
0.9742450000000000 0.8576850000000000 0.5455250000000000
0.9976699999999999 0.6232999999999999 0.9534000000000000
0.9742449999999999 0.6423149999999999 0.9544750000000000
0.5023300000000001 0.8766999999999999 0.9534000000000000
0.5257550000000001 0.8576849999999999 0.9544750000000000
0.5253350000000001 0.6074400000000001 0.7959550000000000
0.5024800000000001 0.6271700000000000 0.7961800000000001
0.5253350000000001 0.8925600000000000 0.7040450000000000
0.5024800000000001 0.8728300000000000 0.7038200000000000
0.5023300000000002 0.6233000000000000 0.5466000000000000
0.5257550000000001 0.6423150000000000 0.5455250000000000
0.7473799999999999 0.8729199999999999 0.5455550000000000
0.7242450000000000 0.8923150000000000 0.5455250000000000
0.7526200000000001 0.6270800000000000 0.5455550000000000
0.7757550000000000 0.6076850000000000 0.5455250000000000
0.6421800000000000 0.5449100000000000 0.5256250000000000
0.6228300000000000 0.5461800000000000 0.5024800000000000
0.8925600000000000 0.7040450000000000 0.5253350000000000
0.8728300000000000 0.7038200000000000 0.5024800000000000
0.6074400000000001 0.7959550000000000 0.5253350000000000
0.6271700000000000 0.7961800000000001 0.5024800000000000
0.8578199999999999 0.9550900000000001 0.5256250000000000
0.8771699999999999 0.9538200000000000 0.5024800000000000
0.6270799999999999 0.9544450000000001 0.7473799999999999
0.6076850000000000 0.9544750000000000 0.7242450000000000
0.8729199999999998 0.9544450000000001 0.7526200000000001
0.8923149999999999 0.9544750000000000 0.7757550000000000
0.6421799999999998 0.9550900000000000 0.9743750000000000
0.6228299999999998 0.9538199999999999 0.9975200000000001
0.8925599999999999 0.7959549999999999 0.9746650000000000
0.8728299999999999 0.7961800000000000 0.9975200000000001
0.6074400000000000 0.7040449999999999 0.9746650000000000
0.6271699999999999 0.7038199999999999 0.9975200000000001
0.6233000000000000 0.7966000000000000 0.7523299999999999
0.6423150000000000 0.7955250000000000 0.7757550000000000
0.8767000000000000 0.7966000000000000 0.7476700000000001
0.8576850000000000 0.7955250000000000 0.7242450000000000
0.6233000000000000 0.7034000000000000 0.7476700000000001
0.6423150000000000 0.7044750000000000 0.7242450000000000
0.8767000000000000 0.7034000000000000 0.7523299999999999
0.8576850000000000 0.7044750000000000 0.7757550000000000
0.6270800000000000 0.5455550000000001 0.7526200000000001
0.6076850000000001 0.5455250000000001 0.7757550000000000
0.8729199999999999 0.5455550000000001 0.7473799999999999
0.8923150000000000 0.5455250000000001 0.7242450000000000
0.7040450000000000 0.5253350000000001 0.8925600000000000
0.7038200000000000 0.5024800000000001 0.8728300000000000
0.5449100000000001 0.5256250000000001 0.6421800000000000
0.5461800000000001 0.5024800000000001 0.6228300000000000
0.5455550000000001 0.7473799999999999 0.8729199999999999
0.5455250000000001 0.7242450000000000 0.8923150000000000
0.5455550000000001 0.7526200000000001 0.6270800000000000
0.5455250000000001 0.7757550000000000 0.6076850000000000
0.5449100000000000 0.9743750000000000 0.8578200000000000
0.5461800000000000 0.9975200000000001 0.8771700000000000
0.7040449999999999 0.9746650000000000 0.6074400000000000
0.7038199999999999 0.9975200000000001 0.6271700000000000
0.7959549999999999 0.9746650000000000 0.8925600000000000
0.7961800000000000 0.9975200000000001 0.8728300000000000
0.9550900000000000 0.9743750000000000 0.6421800000000000
0.9538199999999999 0.9975200000000001 0.6228300000000000
0.9544450000000001 0.7526200000000001 0.8729199999999999
0.9544750000000000 0.7757550000000000 0.8923150000000000
0.9544450000000001 0.7473799999999999 0.6270800000000000
0.9544750000000000 0.7242450000000000 0.6076850000000000
0.9550900000000001 0.5256250000000001 0.8578200000000000
0.9538200000000000 0.5024800000000001 0.8771700000000000
0.7959550000000000 0.5253350000000001 0.6074400000000000
0.7961800000000001 0.5024800000000001 0.6271700000000000
0.7966000000000000 0.7476700000000001 0.8767000000000000
0.7955250000000000 0.7242450000000000 0.8576850000000000
0.7966000000000000 0.7523299999999999 0.6233000000000000
0.7955250000000000 0.7757550000000000 0.6423150000000000
0.7034000000000000 0.7523299999999999 0.8767000000000000
0.7044750000000000 0.7757550000000000 0.8576850000000000
0.7034000000000000 0.7476700000000001 0.6233000000000000
0.7044750000000000 0.7242450000000000 0.6423150000000000
0.8578199999999999 0.5449100000000000 0.9743750000000000
0.8771699999999999 0.5461800000000000 0.9975200000000001
