# framework
1.000000
 49.6433999999999997   0.0000000000000000         0.0000000000
-24.8216999999999928  42.9924455302324020         0.0000000000
  0.0000000000000069   0.0000000000000120       113.4686000000
Zn O C H 
384 1248 5184 2304 
Direct
0.1666650000000000 0.3333350000000000 0.4808399999999999
0.2095900000000000 0.3547950000000000 0.0035800000000000
0.3541099999999999 0.1458900000000000 0.0753600000000000
0.3333349999999999 0.1666650000000000 0.0993500000000000
0.1452050000000000 0.3547950000000000 0.0035800000000000
0.3541100000000000 0.2082200000000000 0.0753600000000000
0.1452050000000000 0.2904100000000000 0.0035800000000000
0.2917800000000000 0.1458900000000000 0.0753600000000000
0.3333349999999999 0.1666650000000000 0.0191600000000000
0.3547949999999999 0.2095900000000000 0.4964199999999999
0.1458900000000000 0.3541100000000000 0.4246399999999999
0.1666650000000000 0.3333350000000000 0.4006500000000000
0.2904099999999999 0.1452050000000000 0.4964199999999999
0.1458900000000000 0.2917800000000000 0.4246399999999999
0.3547949999999999 0.1452050000000000 0.4964199999999999
0.2082200000000000 0.3541100000000000 0.4246399999999999
0.4999983333333332 0.0000016666666667 0.1475066666666666
0.0429233333333333 0.0214616666666666 0.1702466666666666
0.1874433333333333 0.3125566666666666 0.2420266666666666
0.1666683333333333 0.3333316666666667 0.2660166666666666
0.4999983333333333 0.4999966666666666 0.1475066666666666
0.4785383333333332 0.0214616666666667 0.1702466666666666
0.1874433333333334 0.3748866666666666 0.2420266666666666
0.0000033333333334 0.0000016666666666 0.1475066666666666
0.4785383333333332 0.4570766666666667 0.1702466666666666
0.1251133333333333 0.3125566666666667 0.2420266666666666
0.1666683333333333 0.3333316666666667 0.1858266666666667
0.1881283333333332 0.3762566666666667 0.1630866666666666
0.4792233333333333 0.0207766666666667 0.0913066666666666
0.4999983333333333 0.0000016666666667 0.0673166666666666
0.1237433333333333 0.3118716666666666 0.1630866666666666
0.4792233333333333 0.4584466666666666 0.0913066666666666
0.4999983333333333 0.4999966666666666 0.0673166666666666
0.1881283333333333 0.3118716666666666 0.1630866666666666
0.0415533333333333 0.0207766666666667 0.0913066666666666
0.0000033333333334 0.0000016666666666 0.0673166666666666
0.3333316666666666 0.1666683333333333 0.3141733333333332
0.3762566666666666 0.1881283333333332 0.3369133333333332
0.0207766666666667 0.4792233333333333 0.4086933333333332
0.0000016666666667 0.4999983333333333 0.4326833333333333
0.3118716666666666 0.1881283333333333 0.3369133333333332
0.0207766666666667 0.0415533333333333 0.4086933333333332
0.0000016666666666 0.0000033333333334 0.4326833333333333
0.3118716666666666 0.1237433333333333 0.3369133333333332
0.4584466666666666 0.4792233333333333 0.4086933333333332
0.4999966666666666 0.4999983333333333 0.4326833333333333
0.0000016666666667 0.4999983333333333 0.3524933333333332
0.0214616666666666 0.0429233333333333 0.3297533333333333
0.3125566666666666 0.1874433333333333 0.2579733333333333
0.3333316666666667 0.1666683333333333 0.2339833333333333
0.0000016666666666 0.0000033333333334 0.3524933333333332
0.4570766666666666 0.4785383333333332 0.3297533333333333
0.3125566666666667 0.1251133333333333 0.2579733333333333
0.4999966666666665 0.4999983333333333 0.3524933333333332
0.0214616666666667 0.4785383333333333 0.3297533333333333
0.3748866666666666 0.1874433333333333 0.2579733333333333
0.1666650000000000 0.3333350000000000 0.9808399999999998
0.2095900000000000 0.3547949999999999 0.5035799999999999
0.3541099999999999 0.1458900000000000 0.5753599999999999
0.3333349999999999 0.1666650000000000 0.5993499999999999
0.1452050000000000 0.3547950000000000 0.5035799999999999
0.3541100000000000 0.2082200000000000 0.5753599999999999
0.1452049999999999 0.2904099999999999 0.5035799999999999
0.2917800000000000 0.1458900000000000 0.5753599999999999
0.3333349999999999 0.1666650000000000 0.5191600000000000
0.3547949999999999 0.2095900000000000 0.9964199999999998
0.1458900000000000 0.3541099999999999 0.9246399999999999
0.1666650000000000 0.3333349999999999 0.9006499999999998
0.2904099999999999 0.1452050000000000 0.9964199999999998
0.1458900000000000 0.2917800000000000 0.9246399999999999
0.3547950000000000 0.1452050000000001 0.9964199999999998
0.2082200000000000 0.3541100000000000 0.9246399999999999
0.4999983333333333 0.0000016666666667 0.6475066666666666
0.0429233333333333 0.0214616666666666 0.6702466666666665
0.1874433333333333 0.3125566666666666 0.7420266666666664
0.1666683333333333 0.3333316666666667 0.7660166666666665
0.4999983333333333 0.4999966666666666 0.6475066666666666
0.4785383333333333 0.0214616666666667 0.6702466666666665
0.1874433333333334 0.3748866666666666 0.7420266666666664
0.0000033333333334 0.0000016666666666 0.6475066666666666
0.4785383333333332 0.4570766666666666 0.6702466666666665
0.1251133333333334 0.3125566666666666 0.7420266666666664
0.1666683333333333 0.3333316666666667 0.6858266666666666
0.1881283333333332 0.3762566666666667 0.6630866666666665
0.4792233333333333 0.0207766666666667 0.5913066666666665
0.4999983333333333 0.0000016666666667 0.5673166666666667
0.1237433333333333 0.3118716666666667 0.6630866666666665
0.4792233333333333 0.4584466666666666 0.5913066666666665
0.4999983333333333 0.4999966666666666 0.5673166666666667
0.1881283333333333 0.3118716666666667 0.6630866666666665
0.0415533333333333 0.0207766666666667 0.5913066666666665
0.0000033333333334 0.0000016666666666 0.5673166666666667
0.3333316666666666 0.1666683333333333 0.8141733333333331
0.3762566666666666 0.1881283333333332 0.8369133333333332
0.0207766666666667 0.4792233333333333 0.9086933333333332
0.0000016666666667 0.4999983333333333 0.9326833333333332
0.3118716666666667 0.1881283333333334 0.8369133333333332
0.0207766666666667 0.0415533333333333 0.9086933333333332
0.0000016666666666 0.0000033333333334 0.9326833333333332
0.3118716666666666 0.1237433333333333 0.8369133333333332
0.4584466666666666 0.4792233333333333 0.9086933333333332
0.4999966666666665 0.4999983333333333 0.9326833333333332
0.0000016666666667 0.4999983333333333 0.8524933333333332
0.0214616666666666 0.0429233333333333 0.8297533333333332
0.3125566666666666 0.1874433333333333 0.7579733333333333
0.3333316666666666 0.1666683333333333 0.7339833333333332
0.0000016666666666 0.0000033333333334 0.8524933333333332
0.4570766666666666 0.4785383333333332 0.8297533333333332
0.3125566666666666 0.1251133333333333 0.7579733333333333
0.4999966666666666 0.4999983333333333 0.8524933333333332
0.0214616666666667 0.4785383333333333 0.8297533333333332
0.3748866666666666 0.1874433333333333 0.7579733333333333
0.1666650000000000 0.8333349999999999 0.4808399999999999
0.2095900000000001 0.8547950000000000 0.0035800000000000
0.3541100000000000 0.6458900000000000 0.0753600000000000
0.3333349999999999 0.6666650000000001 0.0993500000000000
0.1452050000000001 0.8547950000000000 0.0035800000000000
0.3541100000000000 0.7082200000000000 0.0753600000000000
0.1452050000000000 0.7904100000000001 0.0035800000000000
0.2917800000000000 0.6458900000000000 0.0753600000000000
0.3333350000000000 0.6666650000000001 0.0191600000000000
0.3547950000000000 0.7095899999999999 0.4964199999999999
0.1458900000000000 0.8541099999999999 0.4246399999999999
0.1666650000000000 0.8333349999999999 0.4006500000000000
0.2904100000000000 0.6452050000000000 0.4964199999999999
0.1458900000000002 0.7917800000000002 0.4246399999999999
0.3547950000000000 0.6452050000000000 0.4964199999999999
0.2082200000000000 0.8541100000000000 0.4246399999999999
0.0429233333333334 0.5214616666666666 0.1702466666666666
0.1874433333333333 0.8125566666666664 0.2420266666666666
0.1666683333333333 0.8333316666666665 0.2660166666666666
0.4785383333333333 0.5214616666666668 0.1702466666666666
0.1874433333333333 0.8748866666666665 0.2420266666666666
0.0000033333333334 0.5000016666666667 0.1475066666666666
0.4785383333333332 0.9570766666666666 0.1702466666666666
0.1251133333333333 0.8125566666666666 0.2420266666666666
0.1666683333333333 0.8333316666666666 0.1858266666666667
0.1881283333333332 0.8762566666666666 0.1630866666666666
0.4792233333333332 0.5207766666666667 0.0913066666666666
0.1237433333333334 0.8118716666666667 0.1630866666666666
0.4792233333333333 0.9584466666666666 0.0913066666666666
0.1881283333333333 0.8118716666666667 0.1630866666666666
0.0415533333333333 0.5207766666666667 0.0913066666666666
0.0000033333333334 0.5000016666666667 0.0673166666666666
0.3333316666666666 0.6666683333333333 0.3141733333333332
0.3762566666666666 0.6881283333333331 0.3369133333333332
0.0207766666666668 0.9792233333333334 0.4086933333333332
0.3118716666666666 0.6881283333333332 0.3369133333333332
0.0207766666666667 0.5415533333333333 0.4086933333333332
0.3118716666666667 0.6237433333333332 0.3369133333333332
0.4584466666666667 0.9792233333333334 0.4086933333333332
0.4999966666666667 0.9999983333333334 0.4326833333333333
0.0214616666666666 0.5429233333333333 0.3297533333333333
0.3125566666666667 0.6874433333333333 0.2579733333333333
0.3333316666666667 0.6666683333333333 0.2339833333333333
0.4570766666666667 0.9785383333333333 0.3297533333333333
0.3125566666666667 0.6251133333333332 0.2579733333333333
0.4999966666666666 0.9999983333333334 0.3524933333333332
0.0214616666666668 0.9785383333333333 0.3297533333333333
0.3748866666666667 0.6874433333333333 0.2579733333333333
0.1666650000000000 0.8333349999999999 0.9808399999999998
0.2095900000000001 0.8547950000000001 0.5035799999999999
0.3541100000000000 0.6458900000000000 0.5753599999999999
0.3333350000000000 0.6666650000000001 0.5993499999999999
0.1452050000000001 0.8547950000000001 0.5035799999999999
0.3541100000000000 0.7082200000000000 0.5753599999999999
0.1452050000000000 0.7904100000000002 0.5035799999999999
0.2917800000000000 0.6458900000000001 0.5753599999999999
0.3333350000000000 0.6666650000000002 0.5191600000000000
0.3547950000000000 0.7095899999999998 0.9964199999999998
0.1458900000000000 0.8541099999999999 0.9246399999999999
0.1666650000000000 0.8333349999999999 0.9006499999999998
0.2904099999999999 0.6452049999999999 0.9964199999999998
0.1458900000000002 0.7917800000000002 0.9246399999999999
0.3547950000000000 0.6452049999999999 0.9964199999999998
0.2082200000000000 0.8541100000000001 0.9246399999999999
0.0429233333333333 0.5214616666666665 0.6702466666666665
0.1874433333333332 0.8125566666666665 0.7420266666666664
0.1666683333333333 0.8333316666666666 0.7660166666666665
0.4785383333333333 0.5214616666666667 0.6702466666666665
0.1874433333333334 0.8748866666666665 0.7420266666666664
0.0000033333333334 0.5000016666666666 0.6475066666666666
0.4785383333333333 0.9570766666666666 0.6702466666666665
0.1251133333333333 0.8125566666666666 0.7420266666666664
0.1666683333333334 0.8333316666666666 0.6858266666666666
0.1881283333333332 0.8762566666666665 0.6630866666666665
0.4792233333333333 0.5207766666666667 0.5913066666666665
0.1237433333333333 0.8118716666666665 0.6630866666666665
0.4792233333333333 0.9584466666666667 0.5913066666666665
0.1881283333333333 0.8118716666666665 0.6630866666666665
0.0415533333333334 0.5207766666666667 0.5913066666666665
0.0000033333333334 0.5000016666666667 0.5673166666666667
0.3333316666666667 0.6666683333333333 0.8141733333333331
0.3762566666666666 0.6881283333333332 0.8369133333333332
0.0207766666666668 0.9792233333333334 0.9086933333333332
0.3118716666666667 0.6881283333333333 0.8369133333333332
0.0207766666666667 0.5415533333333333 0.9086933333333332
0.3118716666666667 0.6237433333333333 0.8369133333333332
0.4584466666666667 0.9792233333333334 0.9086933333333332
0.4999966666666666 0.9999983333333334 0.9326833333333332
0.0214616666666667 0.5429233333333333 0.8297533333333332
0.3125566666666666 0.6874433333333333 0.7579733333333333
0.3333316666666666 0.6666683333333332 0.7339833333333332
0.4570766666666666 0.9785383333333332 0.8297533333333332
0.3125566666666666 0.6251133333333333 0.7579733333333333
0.4999966666666666 0.9999983333333333 0.8524933333333332
0.0214616666666667 0.9785383333333332 0.8297533333333332
0.3748866666666666 0.6874433333333333 0.7579733333333333
0.6666650000000000 0.3333350000000000 0.4808399999999999
0.7095899999999999 0.3547950000000000 0.0035800000000000
0.8541099999999998 0.1458900000000000 0.0753600000000000
0.8333349999999998 0.1666650000000000 0.0993500000000000
0.6452049999999999 0.3547950000000000 0.0035800000000000
0.8541099999999999 0.2082200000000000 0.0753600000000000
0.6452049999999999 0.2904100000000000 0.0035800000000000
0.7917799999999999 0.1458900000000000 0.0753600000000000
0.8333349999999998 0.1666650000000000 0.0191600000000000
0.8547949999999999 0.2095900000000000 0.4964199999999999
0.6458899999999999 0.3541100000000000 0.4246399999999999
0.6666650000000000 0.3333350000000000 0.4006500000000000
0.7904099999999998 0.1452050000000000 0.4964199999999999
0.6458900000000000 0.2917800000000000 0.4246399999999999
0.8547949999999997 0.1452050000000000 0.4964199999999999
0.7082200000000000 0.3541100000000000 0.4246399999999999
0.5429233333333332 0.0214616666666666 0.1702466666666666
0.6874433333333332 0.3125566666666666 0.2420266666666666
0.6666683333333332 0.3333316666666667 0.2660166666666666
0.9785383333333332 0.0214616666666667 0.1702466666666666
0.6874433333333332 0.3748866666666666 0.2420266666666666
0.9785383333333332 0.4570766666666667 0.1702466666666666
0.6251133333333332 0.3125566666666667 0.2420266666666666
0.6666683333333332 0.3333316666666667 0.1858266666666667
0.6881283333333331 0.3762566666666667 0.1630866666666666
0.9792233333333331 0.0207766666666667 0.0913066666666666
0.6237433333333332 0.3118716666666666 0.1630866666666666
0.9792233333333332 0.4584466666666666 0.0913066666666666
0.6881283333333332 0.3118716666666666 0.1630866666666666
0.5415533333333332 0.0207766666666667 0.0913066666666666
0.8333316666666665 0.1666683333333333 0.3141733333333332
0.8762566666666665 0.1881283333333332 0.3369133333333332
0.5207766666666666 0.4792233333333333 0.4086933333333332
0.8118716666666664 0.1881283333333333 0.3369133333333332
0.5207766666666666 0.0415533333333333 0.4086933333333332
0.8118716666666665 0.1237433333333333 0.3369133333333332
0.9584466666666664 0.4792233333333333 0.4086933333333332
0.5214616666666665 0.0429233333333333 0.3297533333333333
0.8125566666666665 0.1874433333333333 0.2579733333333333
0.8333316666666664 0.1666683333333333 0.2339833333333333
0.9570766666666665 0.4785383333333332 0.3297533333333333
0.8125566666666665 0.1251133333333333 0.2579733333333333
0.5214616666666666 0.4785383333333333 0.3297533333333333
0.8748866666666664 0.1874433333333333 0.2579733333333333
0.6666650000000000 0.3333350000000000 0.9808399999999998
0.7095899999999999 0.3547949999999999 0.5035799999999999
0.8541099999999999 0.1458900000000000 0.5753599999999999
0.8333349999999998 0.1666650000000000 0.5993499999999999
0.6452050000000000 0.3547950000000000 0.5035799999999999
0.8541100000000000 0.2082200000000000 0.5753599999999999
0.6452049999999999 0.2904099999999999 0.5035799999999999
0.7917800000000000 0.1458900000000000 0.5753599999999999
0.8333349999999999 0.1666650000000000 0.5191600000000000
0.8547949999999999 0.2095900000000000 0.9964199999999998
0.6458900000000000 0.3541099999999999 0.9246399999999999
0.6666650000000000 0.3333349999999999 0.9006499999999998
0.7904099999999998 0.1452050000000000 0.9964199999999998
0.6458900000000000 0.2917800000000000 0.9246399999999999
0.8547949999999997 0.1452050000000001 0.9964199999999998
0.7082200000000000 0.3541100000000000 0.9246399999999999
0.5429233333333331 0.0214616666666666 0.6702466666666665
0.6874433333333332 0.3125566666666666 0.7420266666666664
0.6666683333333332 0.3333316666666667 0.7660166666666665
0.9785383333333332 0.0214616666666667 0.6702466666666665
0.6874433333333332 0.3748866666666666 0.7420266666666664
0.9785383333333332 0.4570766666666666 0.6702466666666665
0.6251133333333332 0.3125566666666666 0.7420266666666664
0.6666683333333332 0.3333316666666667 0.6858266666666666
0.6881283333333330 0.3762566666666667 0.6630866666666665
0.9792233333333332 0.0207766666666667 0.5913066666666665
0.6237433333333331 0.3118716666666667 0.6630866666666665
0.9792233333333333 0.4584466666666666 0.5913066666666665
0.6881283333333331 0.3118716666666667 0.6630866666666665
0.5415533333333332 0.0207766666666667 0.5913066666666665
0.8333316666666666 0.1666683333333333 0.8141733333333331
0.8762566666666666 0.1881283333333332 0.8369133333333332
0.5207766666666667 0.4792233333333333 0.9086933333333332
0.8118716666666665 0.1881283333333334 0.8369133333333332
0.5207766666666667 0.0415533333333333 0.9086933333333332
0.8118716666666667 0.1237433333333333 0.8369133333333332
0.9584466666666666 0.4792233333333333 0.9086933333333332
0.5214616666666665 0.0429233333333333 0.8297533333333332
0.8125566666666666 0.1874433333333333 0.7579733333333333
0.8333316666666665 0.1666683333333333 0.7339833333333332
0.9570766666666666 0.4785383333333332 0.8297533333333332
0.8125566666666666 0.1251133333333333 0.7579733333333333
0.5214616666666667 0.4785383333333333 0.8297533333333332
0.8748866666666665 0.1874433333333333 0.7579733333333333
0.6666650000000000 0.8333349999999999 0.4808399999999999
0.7095899999999999 0.8547950000000000 0.0035800000000000
0.8541099999999998 0.6458900000000000 0.0753600000000000
0.8333349999999999 0.6666650000000001 0.0993500000000000
0.6452050000000000 0.8547950000000000 0.0035800000000000
0.8541099999999999 0.7082200000000000 0.0753600000000000
0.6452049999999999 0.7904100000000001 0.0035800000000000
0.7917799999999999 0.6458900000000000 0.0753600000000000
0.8333349999999999 0.6666650000000001 0.0191600000000000
0.8547950000000000 0.7095899999999999 0.4964199999999999
0.6458899999999999 0.8541099999999999 0.4246399999999999
0.6666650000000000 0.8333349999999999 0.4006500000000000
0.7904099999999999 0.6452050000000000 0.4964199999999999
0.6458900000000002 0.7917800000000002 0.4246399999999999
0.8547950000000000 0.6452050000000000 0.4964199999999999
0.7082200000000000 0.8541100000000000 0.4246399999999999
0.5429233333333333 0.5214616666666666 0.1702466666666666
0.6874433333333331 0.8125566666666664 0.2420266666666666
0.6666683333333332 0.8333316666666665 0.2660166666666666
0.9785383333333332 0.5214616666666668 0.1702466666666666
0.6874433333333332 0.8748866666666665 0.2420266666666666
0.9785383333333332 0.9570766666666666 0.1702466666666666
0.6251133333333332 0.8125566666666666 0.2420266666666666
0.6666683333333333 0.8333316666666666 0.1858266666666667
0.6881283333333331 0.8762566666666666 0.1630866666666666
0.9792233333333331 0.5207766666666667 0.0913066666666666
0.6237433333333333 0.8118716666666667 0.1630866666666666
0.9792233333333332 0.9584466666666666 0.0913066666666666
0.6881283333333333 0.8118716666666667 0.1630866666666666
0.5415533333333332 0.5207766666666667 0.0913066666666666
0.8333316666666666 0.6666683333333333 0.3141733333333332
0.8762566666666665 0.6881283333333331 0.3369133333333332
0.5207766666666667 0.9792233333333334 0.4086933333333332
0.8118716666666665 0.6881283333333332 0.3369133333333332
0.5207766666666666 0.5415533333333333 0.4086933333333332
0.8118716666666665 0.6237433333333332 0.3369133333333332
0.9584466666666666 0.9792233333333334 0.4086933333333332
0.5214616666666665 0.5429233333333333 0.3297533333333333
0.8125566666666665 0.6874433333333333 0.2579733333333333
0.8333316666666666 0.6666683333333333 0.2339833333333333
0.9570766666666667 0.9785383333333333 0.3297533333333333
0.8125566666666666 0.6251133333333332 0.2579733333333333
0.5214616666666667 0.9785383333333333 0.3297533333333333
0.8748866666666665 0.6874433333333333 0.2579733333333333
0.6666650000000001 0.8333349999999999 0.9808399999999998
0.7095899999999999 0.8547950000000001 0.5035799999999999
0.8541099999999999 0.6458900000000000 0.5753599999999999
0.8333349999999998 0.6666650000000001 0.5993499999999999
0.6452050000000000 0.8547950000000001 0.5035799999999999
0.8541099999999999 0.7082200000000000 0.5753599999999999
0.6452050000000000 0.7904100000000002 0.5035799999999999
0.7917799999999999 0.6458900000000001 0.5753599999999999
0.8333349999999999 0.6666650000000002 0.5191600000000000
0.8547949999999999 0.7095899999999998 0.9964199999999998
0.6458900000000000 0.8541099999999999 0.9246399999999999
0.6666650000000001 0.8333349999999999 0.9006499999999998
0.7904099999999998 0.6452049999999999 0.9964199999999998
0.6458900000000002 0.7917800000000002 0.9246399999999999
0.8547949999999997 0.6452049999999999 0.9964199999999998
0.7082200000000000 0.8541100000000001 0.9246399999999999
0.5429233333333332 0.5214616666666665 0.6702466666666665
0.6874433333333332 0.8125566666666665 0.7420266666666664
0.6666683333333332 0.8333316666666666 0.7660166666666665
0.9785383333333332 0.5214616666666667 0.6702466666666665
0.6874433333333332 0.8748866666666665 0.7420266666666664
0.9785383333333332 0.9570766666666666 0.6702466666666665
0.6251133333333332 0.8125566666666666 0.7420266666666664
0.6666683333333332 0.8333316666666666 0.6858266666666666
0.6881283333333331 0.8762566666666665 0.6630866666666665
0.9792233333333332 0.5207766666666667 0.5913066666666665
0.6237433333333332 0.8118716666666665 0.6630866666666665
0.9792233333333332 0.9584466666666667 0.5913066666666665
0.6881283333333332 0.8118716666666665 0.6630866666666665
0.5415533333333333 0.5207766666666667 0.5913066666666665
0.8333316666666666 0.6666683333333333 0.8141733333333331
0.8762566666666666 0.6881283333333332 0.8369133333333332
0.5207766666666668 0.9792233333333334 0.9086933333333332
0.8118716666666665 0.6881283333333333 0.8369133333333332
0.5207766666666667 0.5415533333333333 0.9086933333333332
0.8118716666666665 0.6237433333333333 0.8369133333333332
0.9584466666666667 0.9792233333333334 0.9086933333333332
0.5214616666666666 0.5429233333333333 0.8297533333333332
0.8125566666666665 0.6874433333333333 0.7579733333333333
0.8333316666666666 0.6666683333333332 0.7339833333333332
0.9570766666666666 0.9785383333333332 0.8297533333333332
0.8125566666666666 0.6251133333333333 0.7579733333333333
0.5214616666666666 0.9785383333333332 0.8297533333333332
0.8748866666666665 0.6874433333333333 0.7579733333333333
0.1666650000000000 0.3333349999999999 0.4977699999999999
0.3333349999999999 0.1666650000000000 0.0815150000000000
0.4791899999999999 0.0208100000000000 0.1406600000000000
0.4648849999999999 0.0351150000000000 0.1569400000000000
0.3709799999999999 0.1290200000000000 0.0865350000000000
0.3562449999999999 0.1437550000000000 0.1022950000000000
0.2186300000000000 0.3902650000000000 0.0130100000000000
0.3273699999999999 0.1101650000000000 0.0654000000000000
0.4791899999999999 0.4583799999999999 0.1406600000000000
0.4648850000000000 0.4297700000000000 0.1569400000000000
0.3709800000000000 0.2419600000000000 0.0865350000000000
0.3562449999999999 0.2124900000000000 0.1022950000000000
0.1097350000000000 0.3283650000000000 0.0130100000000000
0.3898349999999999 0.2172050000000000 0.0654000000000000
0.0416200000000000 0.0208100000000000 0.1406600000000000
0.0702300000000000 0.0351150000000000 0.1569400000000000
0.2580400000000000 0.1290200000000000 0.0865350000000000
0.2875100000000000 0.1437550000000000 0.1022950000000000
0.1716350000000000 0.2813700000000000 0.0130100000000000
0.2827950000000000 0.1726300000000000 0.0654000000000000
0.3333349999999999 0.1666650000000000 0.0022300000000000
0.1666650000000000 0.3333350000000000 0.4184849999999999
0.0208100000000000 0.4791899999999999 0.3593399999999999
0.0351150000000000 0.4648849999999999 0.3430600000000000
0.1290200000000000 0.3709800000000000 0.4134649999999999
0.1437550000000000 0.3562450000000000 0.3977049999999999
0.3902650000000000 0.2186300000000000 0.4869899999999999
0.1101650000000000 0.3273700000000000 0.4345999999999999
0.0208100000000000 0.0416200000000000 0.3593399999999999
0.0351150000000000 0.0702300000000000 0.3430600000000000
0.1290200000000000 0.2580400000000000 0.4134649999999999
0.1437550000000000 0.2875100000000000 0.3977049999999999
0.2813700000000000 0.1716350000000000 0.4869899999999999
0.1726300000000000 0.2827950000000000 0.4345999999999999
0.4583799999999999 0.4791899999999999 0.3593399999999999
0.4297699999999999 0.4648849999999999 0.3430600000000000
0.2419600000000000 0.3709800000000000 0.4134649999999999
0.2124900000000000 0.3562450000000000 0.3977049999999999
0.3283650000000000 0.1097350000000000 0.4869899999999999
0.2172050000000000 0.3898350000000000 0.4345999999999999
0.2813700000000000 0.1097350000000000 0.4869899999999999
0.1726300000000000 0.3898350000000000 0.4345999999999999
0.3902649999999999 0.1716350000000000 0.4869899999999999
0.1101650000000000 0.2827950000000000 0.4345999999999999
0.3283650000000000 0.2186300000000000 0.4869899999999999
0.2172050000000000 0.3273700000000000 0.4345999999999999
0.1097350000000000 0.2813700000000000 0.0130100000000000
0.3898349999999999 0.1726300000000000 0.0654000000000000
0.2186300000000000 0.3283650000000000 0.0130100000000000
0.3273699999999999 0.2172050000000000 0.0654000000000000
0.1716350000000000 0.3902650000000000 0.0130100000000000
0.2827950000000000 0.1101650000000000 0.0654000000000000
0.4999983333333332 0.0000016666666667 0.1644366666666666
0.1666683333333333 0.3333316666666667 0.2481816666666666
0.3125233333333332 0.1874766666666667 0.3073266666666666
0.2982183333333332 0.2017816666666666 0.3236066666666666
0.2043133333333333 0.2956866666666667 0.2532016666666666
0.1895783333333333 0.3104216666666667 0.2689616666666666
0.0519633333333334 0.0569316666666666 0.1796766666666666
0.1607033333333333 0.2768316666666666 0.2320666666666666
0.4999983333333333 0.4999966666666667 0.1644366666666666
0.3125233333333332 0.1250466666666666 0.3073266666666666
0.2982183333333332 0.0964366666666666 0.3236066666666666
0.2043133333333333 0.4086266666666666 0.2532016666666666
0.1895783333333333 0.3791566666666666 0.2689616666666666
0.4430683333333333 0.4950316666666666 0.1796766666666666
0.2231683333333333 0.3838716666666666 0.2320666666666666
0.0000033333333334 0.0000016666666666 0.1644366666666666
0.3749533333333332 0.1874766666666666 0.3073266666666666
0.4035633333333332 0.2017816666666666 0.3236066666666666
0.0913733333333334 0.2956866666666667 0.2532016666666666
0.1208433333333333 0.3104216666666667 0.2689616666666666
0.0049683333333333 0.4480366666666667 0.1796766666666666
0.1161283333333333 0.3392966666666667 0.2320666666666666
0.1666683333333333 0.3333316666666667 0.1688966666666667
0.4999983333333333 0.0000016666666667 0.0851516666666666
0.3541433333333333 0.1458566666666666 0.0260066666666666
0.3684483333333333 0.1315516666666666 0.0097266666666667
0.4623533333333332 0.0376466666666666 0.0801316666666666
0.4770883333333333 0.0229116666666667 0.0643716666666666
0.2235983333333333 0.3852966666666666 0.1536566666666666
0.4434983333333332 0.4940366666666666 0.1012666666666666
0.4999983333333333 0.4999966666666666 0.0851516666666666
0.3541433333333333 0.2082866666666666 0.0260066666666666
0.3684483333333333 0.2368966666666666 0.0097266666666667
0.4623533333333333 0.4247066666666666 0.0801316666666666
0.4770883333333333 0.4541766666666667 0.0643716666666666
0.1147033333333333 0.3383016666666666 0.1536566666666666
0.0059633333333333 0.4494616666666665 0.1012666666666666
0.0000033333333334 0.0000016666666666 0.0851516666666666
0.2917133333333332 0.1458566666666667 0.0260066666666666
0.2631033333333332 0.1315516666666667 0.0097266666666667
0.0752933333333333 0.0376466666666667 0.0801316666666666
0.0458233333333333 0.0229116666666667 0.0643716666666666
0.1616983333333333 0.2764016666666666 0.1536566666666666
0.0505383333333334 0.0565016666666667 0.1012666666666666
0.1147033333333333 0.2764016666666666 0.1536566666666666
0.0059633333333333 0.0565016666666667 0.1012666666666666
0.2235983333333333 0.3383016666666666 0.1536566666666666
0.4434983333333332 0.4494616666666665 0.1012666666666666
0.1616983333333333 0.3852966666666666 0.1536566666666666
0.0505383333333333 0.4940366666666666 0.1012666666666666
0.4430683333333333 0.4480366666666667 0.1796766666666666
0.2231683333333333 0.3392966666666667 0.2320666666666666
0.0519633333333334 0.4950316666666666 0.1796766666666666
0.1607033333333333 0.3838716666666666 0.2320666666666666
0.0049683333333332 0.0569316666666666 0.1796766666666666
0.1161283333333333 0.2768316666666666 0.2320666666666666
0.3333316666666666 0.1666683333333333 0.3311033333333332
0.0000016666666667 0.4999983333333333 0.4148483333333333
0.1458566666666666 0.3541433333333333 0.4739933333333333
0.1315516666666666 0.3684483333333333 0.4902733333333333
0.0376466666666666 0.4623533333333332 0.4198683333333332
0.0229116666666666 0.4770883333333333 0.4356283333333332
0.3852966666666665 0.2235983333333333 0.3463433333333333
0.4940366666666666 0.4434983333333333 0.3987333333333332
0.0000016666666666 0.0000033333333334 0.4148483333333333
0.1458566666666666 0.2917133333333333 0.4739933333333333
0.1315516666666667 0.2631033333333332 0.4902733333333333
0.0376466666666667 0.0752933333333333 0.4198683333333332
0.0229116666666667 0.0458233333333333 0.4356283333333332
0.2764016666666666 0.1616983333333333 0.3463433333333333
0.0565016666666667 0.0505383333333334 0.3987333333333332
0.4999966666666666 0.4999983333333333 0.4148483333333333
0.2082866666666666 0.3541433333333333 0.4739933333333333
0.2368966666666666 0.3684483333333333 0.4902733333333333
0.4247066666666666 0.4623533333333333 0.4198683333333332
0.4541766666666666 0.4770883333333333 0.4356283333333332
0.3383016666666666 0.1147033333333333 0.3463433333333333
0.4494616666666666 0.0059633333333333 0.3987333333333332
0.0000016666666667 0.4999983333333333 0.3355633333333333
0.3333316666666667 0.1666683333333333 0.2518183333333333
0.1874766666666666 0.3125233333333332 0.1926733333333333
0.2017816666666666 0.2982183333333333 0.1763933333333333
0.2956866666666667 0.2043133333333334 0.2467983333333333
0.3104216666666666 0.1895783333333333 0.2310383333333333
0.0569316666666666 0.0519633333333334 0.3203233333333332
0.2768316666666666 0.1607033333333333 0.2679333333333332
0.0000016666666666 0.0000033333333334 0.3355633333333333
0.1874766666666666 0.3749533333333333 0.1926733333333333
0.2017816666666666 0.4035633333333333 0.1763933333333333
0.2956866666666666 0.0913733333333333 0.2467983333333333
0.3104216666666667 0.1208433333333333 0.2310383333333333
0.4480366666666665 0.0049683333333332 0.3203233333333332
0.3392966666666666 0.1161283333333333 0.2679333333333332
0.4999966666666665 0.4999983333333333 0.3355633333333333
0.1250466666666666 0.3125233333333333 0.1926733333333333
0.0964366666666666 0.2982183333333333 0.1763933333333333
0.4086266666666666 0.2043133333333333 0.2467983333333333
0.3791566666666666 0.1895783333333333 0.2310383333333333
0.4950316666666666 0.4430683333333333 0.3203233333333332
0.3838716666666666 0.2231683333333333 0.2679333333333332
0.4480366666666666 0.4430683333333333 0.3203233333333332
0.3392966666666667 0.2231683333333333 0.2679333333333332
0.0569316666666666 0.0049683333333332 0.3203233333333332
0.2768316666666666 0.1161283333333333 0.2679333333333332
0.4950316666666665 0.0519633333333334 0.3203233333333332
0.3838716666666666 0.1607033333333333 0.2679333333333332
0.2764016666666666 0.1147033333333333 0.3463433333333333
0.0565016666666667 0.0059633333333333 0.3987333333333332
0.3852966666666665 0.1616983333333333 0.3463433333333333
0.4940366666666666 0.0505383333333334 0.3987333333333332
0.3383016666666666 0.2235983333333333 0.3463433333333333
0.4494616666666666 0.4434983333333333 0.3987333333333332
0.1666650000000000 0.3333350000000000 0.9977699999999999
0.3333349999999999 0.1666650000000000 0.5815149999999999
0.4791899999999999 0.0208100000000000 0.6406599999999999
0.4648849999999999 0.0351150000000000 0.6569399999999999
0.3709799999999999 0.1290200000000000 0.5865349999999999
0.3562449999999999 0.1437550000000000 0.6022949999999999
0.2186300000000000 0.3902650000000000 0.5130099999999999
0.3273699999999999 0.1101650000000000 0.5653999999999999
0.4791899999999999 0.4583800000000000 0.6406599999999999
0.4648849999999999 0.4297700000000000 0.6569399999999999
0.3709799999999999 0.2419600000000000 0.5865349999999999
0.3562450000000000 0.2124900000000000 0.6022949999999999
0.1097350000000000 0.3283650000000000 0.5130099999999999
0.3898349999999999 0.2172050000000000 0.5653999999999999
0.0416200000000000 0.0208100000000000 0.6406599999999999
0.0702300000000000 0.0351150000000000 0.6569399999999999
0.2580400000000000 0.1290200000000000 0.5865349999999999
0.2875100000000000 0.1437550000000000 0.6022949999999999
0.1716350000000000 0.2813700000000000 0.5130099999999999
0.2827950000000000 0.1726300000000000 0.5653999999999999
0.3333349999999999 0.1666650000000000 0.5022299999999998
0.1666650000000000 0.3333349999999999 0.9184849999999999
0.0208100000000000 0.4791900000000000 0.8593399999999999
0.0351150000000000 0.4648850000000000 0.8430599999999999
0.1290200000000000 0.3709799999999999 0.9134649999999997
0.1437550000000000 0.3562449999999999 0.8977049999999999
0.3902649999999999 0.2186300000000000 0.9869899999999998
0.1101650000000000 0.3273699999999999 0.9345999999999998
0.0208100000000000 0.0416200000000000 0.8593399999999999
0.0351150000000000 0.0702300000000000 0.8430599999999999
0.1290200000000000 0.2580400000000000 0.9134649999999997
0.1437550000000000 0.2875100000000000 0.8977049999999999
0.2813700000000000 0.1716350000000000 0.9869899999999998
0.1726300000000000 0.2827950000000000 0.9345999999999998
0.4583800000000000 0.4791900000000000 0.8593399999999999
0.4297700000000000 0.4648850000000000 0.8430599999999999
0.2419600000000000 0.3709799999999999 0.9134649999999997
0.2124900000000000 0.3562450000000000 0.8977049999999999
0.3283650000000000 0.1097350000000000 0.9869899999999998
0.2172050000000000 0.3898349999999999 0.9345999999999998
0.2813700000000000 0.1097350000000000 0.9869899999999998
0.1726300000000000 0.3898349999999999 0.9345999999999998
0.3902649999999999 0.1716350000000000 0.9869899999999998
0.1101650000000000 0.2827950000000000 0.9345999999999998
0.3283650000000000 0.2186300000000000 0.9869899999999998
0.2172050000000000 0.3273699999999999 0.9345999999999998
0.1097350000000000 0.2813700000000000 0.5130099999999999
0.3898349999999999 0.1726300000000000 0.5653999999999999
0.2186299999999999 0.3283650000000000 0.5130099999999999
0.3273699999999999 0.2172050000000000 0.5653999999999999
0.1716350000000000 0.3902650000000000 0.5130099999999999
0.2827950000000000 0.1101650000000000 0.5653999999999999
0.4999983333333333 0.0000016666666667 0.6644366666666666
0.1666683333333333 0.3333316666666667 0.7481816666666664
0.3125233333333332 0.1874766666666666 0.8073266666666664
0.2982183333333333 0.2017816666666667 0.8236066666666664
0.2043133333333333 0.2956866666666666 0.7532016666666665
0.1895783333333333 0.3104216666666667 0.7689616666666664
0.0519633333333334 0.0569316666666666 0.6796766666666666
0.1607033333333333 0.2768316666666666 0.7320666666666665
0.4999983333333333 0.4999966666666666 0.6644366666666666
0.3125233333333333 0.1250466666666666 0.8073266666666664
0.2982183333333333 0.0964366666666666 0.8236066666666664
0.2043133333333333 0.4086266666666666 0.7532016666666665
0.1895783333333333 0.3791566666666666 0.7689616666666664
0.4430683333333333 0.4950316666666666 0.6796766666666666
0.2231683333333333 0.3838716666666665 0.7320666666666665
0.0000033333333334 0.0000016666666666 0.6644366666666666
0.3749533333333332 0.1874766666666666 0.8073266666666664
0.4035633333333333 0.2017816666666667 0.8236066666666664
0.0913733333333333 0.2956866666666666 0.7532016666666665
0.1208433333333333 0.3104216666666667 0.7689616666666664
0.0049683333333333 0.4480366666666666 0.6796766666666666
0.1161283333333333 0.3392966666666667 0.7320666666666665
0.1666683333333333 0.3333316666666667 0.6688966666666666
0.4999983333333333 0.0000016666666667 0.5851516666666665
0.3541433333333333 0.1458566666666666 0.5260066666666665
0.3684483333333333 0.1315516666666666 0.5097266666666666
0.4623533333333332 0.0376466666666666 0.5801316666666666
0.4770883333333333 0.0229116666666667 0.5643716666666667
0.2235983333333333 0.3852966666666666 0.6536566666666666
0.4434983333333333 0.4940366666666666 0.6012666666666665
0.4999983333333333 0.4999966666666666 0.5851516666666665
0.3541433333333333 0.2082866666666666 0.5260066666666665
0.3684483333333333 0.2368966666666666 0.5097266666666666
0.4623533333333333 0.4247066666666666 0.5801316666666666
0.4770883333333333 0.4541766666666667 0.5643716666666667
0.1147033333333333 0.3383016666666666 0.6536566666666666
0.0059633333333333 0.4494616666666666 0.6012666666666665
0.0000033333333334 0.0000016666666666 0.5851516666666665
0.2917133333333332 0.1458566666666667 0.5260066666666665
0.2631033333333332 0.1315516666666667 0.5097266666666666
0.0752933333333333 0.0376466666666667 0.5801316666666666
0.0458233333333333 0.0229116666666667 0.5643716666666667
0.1616983333333333 0.2764016666666667 0.6536566666666666
0.0505383333333334 0.0565016666666667 0.6012666666666665
0.1147033333333333 0.2764016666666667 0.6536566666666666
0.0059633333333333 0.0565016666666667 0.6012666666666665
0.2235983333333333 0.3383016666666666 0.6536566666666666
0.4434983333333333 0.4494616666666666 0.6012666666666665
0.1616983333333333 0.3852966666666666 0.6536566666666666
0.0505383333333333 0.4940366666666666 0.6012666666666665
0.4430683333333333 0.4480366666666666 0.6796766666666666
0.2231683333333333 0.3392966666666667 0.7320666666666665
0.0519633333333334 0.4950316666666666 0.6796766666666666
0.1607033333333333 0.3838716666666665 0.7320666666666665
0.0049683333333332 0.0569316666666666 0.6796766666666666
0.1161283333333333 0.2768316666666666 0.7320666666666665
0.3333316666666666 0.1666683333333333 0.8311033333333332
0.0000016666666667 0.4999983333333333 0.9148483333333332
0.1458566666666666 0.3541433333333333 0.9739933333333330
0.1315516666666666 0.3684483333333333 0.9902733333333332
0.0376466666666666 0.4623533333333332 0.9198683333333331
0.0229116666666667 0.4770883333333333 0.9356283333333332
0.3852966666666666 0.2235983333333333 0.8463433333333332
0.4940366666666666 0.4434983333333333 0.8987333333333332
0.0000016666666666 0.0000033333333334 0.9148483333333332
0.1458566666666666 0.2917133333333333 0.9739933333333330
0.1315516666666667 0.2631033333333332 0.9902733333333332
0.0376466666666667 0.0752933333333333 0.9198683333333331
0.0229116666666667 0.0458233333333333 0.9356283333333332
0.2764016666666666 0.1616983333333333 0.8463433333333332
0.0565016666666667 0.0505383333333333 0.8987333333333332
0.4999966666666665 0.4999983333333333 0.9148483333333332
0.2082866666666666 0.3541433333333333 0.9739933333333330
0.2368966666666666 0.3684483333333333 0.9902733333333332
0.4247066666666666 0.4623533333333333 0.9198683333333331
0.4541766666666666 0.4770883333333333 0.9356283333333332
0.3383016666666666 0.1147033333333333 0.8463433333333332
0.4494616666666666 0.0059633333333333 0.8987333333333332
0.0000016666666667 0.4999983333333333 0.8355633333333332
0.3333316666666666 0.1666683333333333 0.7518183333333331
0.1874766666666667 0.3125233333333333 0.6926733333333331
0.2017816666666666 0.2982183333333333 0.6763933333333332
0.2956866666666666 0.2043133333333333 0.7467983333333332
0.3104216666666666 0.1895783333333333 0.7310383333333332
0.0569316666666666 0.0519633333333334 0.8203233333333332
0.2768316666666666 0.1607033333333333 0.7679333333333332
0.0000016666666666 0.0000033333333334 0.8355633333333332
0.1874766666666666 0.3749533333333333 0.6926733333333331
0.2017816666666666 0.4035633333333333 0.6763933333333332
0.2956866666666666 0.0913733333333333 0.7467983333333332
0.3104216666666667 0.1208433333333333 0.7310383333333332
0.4480366666666666 0.0049683333333332 0.8203233333333332
0.3392966666666666 0.1161283333333333 0.7679333333333332
0.4999966666666666 0.4999983333333333 0.8355633333333332
0.1250466666666667 0.3125233333333333 0.6926733333333331
0.0964366666666666 0.2982183333333334 0.6763933333333332
0.4086266666666666 0.2043133333333333 0.7467983333333332
0.3791566666666666 0.1895783333333333 0.7310383333333332
0.4950316666666666 0.4430683333333334 0.8203233333333332
0.3838716666666666 0.2231683333333332 0.7679333333333332
0.4480366666666666 0.4430683333333334 0.8203233333333332
0.3392966666666666 0.2231683333333332 0.7679333333333332
0.0569316666666666 0.0049683333333332 0.8203233333333332
0.2768316666666666 0.1161283333333333 0.7679333333333332
0.4950316666666666 0.0519633333333334 0.8203233333333332
0.3838716666666665 0.1607033333333333 0.7679333333333332
0.2764016666666666 0.1147033333333333 0.8463433333333332
0.0565016666666667 0.0059633333333333 0.8987333333333332
0.3852966666666666 0.1616983333333333 0.8463433333333332
0.4940366666666666 0.0505383333333333 0.8987333333333332
0.3383016666666666 0.2235983333333333 0.8463433333333332
0.4494616666666666 0.4434983333333333 0.8987333333333332
0.1666650000000000 0.8333349999999999 0.4977699999999999
0.3333350000000000 0.6666650000000001 0.0815150000000000
0.4791899999999999 0.5208100000000000 0.1406600000000000
0.4648849999999999 0.5351150000000001 0.1569400000000000
0.3709800000000000 0.6290200000000000 0.0865350000000000
0.3562449999999999 0.6437550000000000 0.1022950000000000
0.2186300000000000 0.8902650000000000 0.0130100000000000
0.3273700000000000 0.6101650000000000 0.0654000000000000
0.4791899999999999 0.9583799999999999 0.1406600000000000
0.4648849999999999 0.9297700000000000 0.1569400000000000
0.3709800000000000 0.7419600000000000 0.0865350000000000
0.3562450000000000 0.7124900000000000 0.1022950000000000
0.1097350000000000 0.8283649999999999 0.0130100000000000
0.3898350000000000 0.7172050000000000 0.0654000000000000
0.0416200000000001 0.5208100000000000 0.1406600000000000
0.0702300000000001 0.5351150000000001 0.1569400000000000
0.2580400000000000 0.6290200000000000 0.0865350000000000
0.2875100000000000 0.6437550000000001 0.1022950000000000
0.1716350000000000 0.7813700000000000 0.0130100000000000
0.2827950000000000 0.6726300000000001 0.0654000000000000
0.3333350000000000 0.6666650000000001 0.0022300000000000
0.1666650000000000 0.8333349999999999 0.4184849999999999
0.0208100000000001 0.9791900000000001 0.3593399999999999
0.0351150000000001 0.9648850000000000 0.3430600000000000
0.1290200000000000 0.8709800000000000 0.4134649999999999
0.1437550000000001 0.8562450000000000 0.3977049999999999
0.3902650000000000 0.7186300000000000 0.4869899999999999
0.1101650000000001 0.8273700000000000 0.4345999999999999
0.0208100000000000 0.5416200000000000 0.3593399999999999
0.0351150000000000 0.5702299999999999 0.3430600000000000
0.1290200000000001 0.7580400000000002 0.4134649999999999
0.1437550000000001 0.7875100000000000 0.3977049999999999
0.2813700000000000 0.6716350000000000 0.4869899999999999
0.1726300000000000 0.7827950000000001 0.4345999999999999
0.4583800000000001 0.9791900000000001 0.3593399999999999
0.4297699999999999 0.9648850000000000 0.3430600000000000
0.2419600000000000 0.8709800000000000 0.4134649999999999
0.2124900000000000 0.8562450000000000 0.3977049999999999
0.3283650000000000 0.6097350000000000 0.4869899999999999
0.2172050000000000 0.8898349999999999 0.4345999999999999
0.2813700000000000 0.6097350000000000 0.4869899999999999
0.1726300000000001 0.8898349999999999 0.4345999999999999
0.3902650000000000 0.6716350000000000 0.4869899999999999
0.1101650000000000 0.7827950000000001 0.4345999999999999
0.3283650000000001 0.7186300000000000 0.4869899999999999
0.2172050000000001 0.8273700000000000 0.4345999999999999
0.1097350000000000 0.7813700000000000 0.0130100000000000
0.3898350000000000 0.6726300000000001 0.0654000000000000
0.2186300000000000 0.8283649999999999 0.0130100000000000
0.3273700000000000 0.7172050000000000 0.0654000000000000
0.1716350000000000 0.8902650000000000 0.0130100000000000
0.2827950000000000 0.6101650000000000 0.0654000000000000
0.1666683333333333 0.8333316666666665 0.2481816666666666
0.3125233333333332 0.6874766666666666 0.3073266666666666
0.2982183333333333 0.7017816666666666 0.3236066666666666
0.2043133333333333 0.7956866666666664 0.2532016666666666
0.1895783333333332 0.8104216666666665 0.2689616666666666
0.0519633333333334 0.5569316666666667 0.1796766666666666
0.1607033333333333 0.7768316666666665 0.2320666666666666
0.3125233333333333 0.6250466666666665 0.3073266666666666
0.2982183333333333 0.5964366666666666 0.3236066666666666
0.2043133333333333 0.9086266666666665 0.2532016666666666
0.1895783333333333 0.8791566666666665 0.2689616666666666
0.4430683333333333 0.9950316666666666 0.1796766666666666
0.2231683333333334 0.8838716666666665 0.2320666666666666
0.0000033333333334 0.5000016666666668 0.1644366666666666
0.3749533333333332 0.6874766666666666 0.3073266666666666
0.4035633333333333 0.7017816666666666 0.3236066666666666
0.0913733333333333 0.7956866666666664 0.2532016666666666
0.1208433333333333 0.8104216666666666 0.2689616666666666
0.0049683333333332 0.9480366666666665 0.1796766666666666
0.1161283333333334 0.8392966666666666 0.2320666666666666
0.1666683333333333 0.8333316666666666 0.1688966666666667
0.3541433333333333 0.6458566666666666 0.0260066666666666
0.3684483333333333 0.6315516666666666 0.0097266666666667
0.4623533333333332 0.5376466666666666 0.0801316666666666
0.4770883333333333 0.5229116666666667 0.0643716666666666
0.2235983333333334 0.8852966666666666 0.1536566666666666
0.4434983333333333 0.9940366666666667 0.1012666666666666
0.3541433333333333 0.7082866666666665 0.0260066666666666
0.3684483333333333 0.7368966666666666 0.0097266666666667
0.4623533333333333 0.9247066666666666 0.0801316666666666
0.4770883333333332 0.9541766666666666 0.0643716666666666
0.1147033333333334 0.8383016666666665 0.1536566666666666
0.0059633333333334 0.9494616666666665 0.1012666666666666
0.0000033333333334 0.5000016666666667 0.0851516666666666
0.2917133333333332 0.6458566666666666 0.0260066666666666
0.2631033333333332 0.6315516666666666 0.0097266666666667
0.0752933333333333 0.5376466666666666 0.0801316666666666
0.0458233333333334 0.5229116666666667 0.0643716666666666
0.1616983333333333 0.7764016666666667 0.1536566666666666
0.0505383333333333 0.5565016666666667 0.1012666666666666
0.1147033333333334 0.7764016666666667 0.1536566666666666
0.0059633333333333 0.5565016666666667 0.1012666666666666
0.2235983333333333 0.8383016666666665 0.1536566666666666
0.4434983333333333 0.9494616666666665 0.1012666666666666
0.1616983333333334 0.8852966666666666 0.1536566666666666
0.0505383333333334 0.9940366666666667 0.1012666666666666
0.4430683333333333 0.9480366666666665 0.1796766666666666
0.2231683333333333 0.8392966666666666 0.2320666666666666
0.0519633333333334 0.9950316666666666 0.1796766666666666
0.1607033333333334 0.8838716666666665 0.2320666666666666
0.0049683333333333 0.5569316666666667 0.1796766666666666
0.1161283333333334 0.7768316666666665 0.2320666666666666
0.3333316666666666 0.6666683333333333 0.3311033333333332
0.1458566666666666 0.8541433333333333 0.4739933333333333
0.1315516666666667 0.8684483333333333 0.4902733333333333
0.0376466666666667 0.9623533333333333 0.4198683333333332
0.0229116666666668 0.9770883333333333 0.4356283333333332
0.3852966666666666 0.7235983333333332 0.3463433333333333
0.4940366666666667 0.9434983333333333 0.3987333333333332
0.1458566666666667 0.7917133333333333 0.4739933333333333
0.1315516666666667 0.7631033333333332 0.4902733333333333
0.0376466666666667 0.5752933333333333 0.4198683333333332
0.0229116666666667 0.5458233333333332 0.4356283333333332
0.2764016666666665 0.6616983333333332 0.3463433333333333
0.0565016666666667 0.5505383333333334 0.3987333333333332
0.4999966666666666 0.9999983333333334 0.4148483333333333
0.2082866666666666 0.8541433333333333 0.4739933333333333
0.2368966666666666 0.8684483333333333 0.4902733333333333
0.4247066666666667 0.9623533333333333 0.4198683333333332
0.4541766666666667 0.9770883333333333 0.4356283333333332
0.3383016666666666 0.6147033333333334 0.3463433333333333
0.4494616666666666 0.5059633333333333 0.3987333333333332
0.3333316666666667 0.6666683333333333 0.2518183333333333
0.1874766666666667 0.8125233333333332 0.1926733333333333
0.2017816666666667 0.7982183333333333 0.1763933333333333
0.2956866666666667 0.7043133333333332 0.2467983333333333
0.3104216666666667 0.6895783333333333 0.2310383333333333
0.0569316666666666 0.5519633333333333 0.3203233333333332
0.2768316666666666 0.6607033333333332 0.2679333333333332
0.1874766666666667 0.8749533333333332 0.1926733333333333
0.2017816666666666 0.9035633333333333 0.1763933333333333
0.2956866666666667 0.5913733333333332 0.2467983333333333
0.3104216666666667 0.6208433333333333 0.2310383333333333
0.4480366666666666 0.5049683333333331 0.3203233333333332
0.3392966666666667 0.6161283333333334 0.2679333333333332
0.4999966666666666 0.9999983333333334 0.3355633333333333
0.1250466666666667 0.8125233333333332 0.1926733333333333
0.0964366666666667 0.7982183333333333 0.1763933333333333
0.4086266666666666 0.7043133333333332 0.2467983333333333
0.3791566666666667 0.6895783333333333 0.2310383333333333
0.4950316666666666 0.9430683333333335 0.3203233333333332
0.3838716666666666 0.7231683333333332 0.2679333333333332
0.4480366666666666 0.9430683333333335 0.3203233333333332
0.3392966666666667 0.7231683333333332 0.2679333333333332
0.0569316666666666 0.5049683333333331 0.3203233333333332
0.2768316666666666 0.6161283333333334 0.2679333333333332
0.4950316666666666 0.5519633333333333 0.3203233333333332
0.3838716666666666 0.6607033333333332 0.2679333333333332
0.2764016666666666 0.6147033333333334 0.3463433333333333
0.0565016666666667 0.5059633333333333 0.3987333333333332
0.3852966666666665 0.6616983333333332 0.3463433333333333
0.4940366666666666 0.5505383333333334 0.3987333333333332
0.3383016666666666 0.7235983333333332 0.3463433333333333
0.4494616666666666 0.9434983333333333 0.3987333333333332
0.1666650000000000 0.8333349999999998 0.9977699999999999
0.3333350000000000 0.6666650000000002 0.5815149999999999
0.4791900000000000 0.5208099999999999 0.6406599999999999
0.4648850000000000 0.5351149999999999 0.6569399999999999
0.3709800000000000 0.6290200000000000 0.5865349999999999
0.3562449999999999 0.6437549999999999 0.6022949999999999
0.2186300000000000 0.8902650000000000 0.5130099999999999
0.3273700000000000 0.6101650000000001 0.5653999999999999
0.4791899999999999 0.9583799999999999 0.6406599999999999
0.4648850000000000 0.9297699999999999 0.6569399999999999
0.3709799999999999 0.7419600000000000 0.5865349999999999
0.3562450000000000 0.7124899999999998 0.6022949999999999
0.1097350000000000 0.8283650000000000 0.5130099999999999
0.3898350000000000 0.7172050000000001 0.5653999999999999
0.0416200000000001 0.5208099999999999 0.6406599999999999
0.0702300000000000 0.5351149999999999 0.6569399999999999
0.2580400000000000 0.6290200000000000 0.5865349999999999
0.2875100000000000 0.6437550000000001 0.6022949999999999
0.1716350000000000 0.7813700000000000 0.5130099999999999
0.2827950000000000 0.6726300000000001 0.5653999999999999
0.3333350000000000 0.6666650000000002 0.5022299999999998
0.1666650000000000 0.8333349999999999 0.9184849999999999
0.0208100000000001 0.9791900000000000 0.8593399999999999
0.0351150000000000 0.9648849999999999 0.8430599999999999
0.1290200000000001 0.8709800000000000 0.9134649999999997
0.1437550000000001 0.8562450000000000 0.8977049999999999
0.3902650000000000 0.7186300000000000 0.9869899999999998
0.1101650000000001 0.8273700000000000 0.9345999999999998
0.0208100000000000 0.5416200000000000 0.8593399999999999
0.0351150000000000 0.5702300000000000 0.8430599999999999
0.1290200000000001 0.7580400000000002 0.9134649999999997
0.1437550000000001 0.7875100000000002 0.8977049999999999
0.2813700000000000 0.6716350000000000 0.9869899999999998
0.1726300000000001 0.7827950000000001 0.9345999999999998
0.4583800000000000 0.9791900000000000 0.8593399999999999
0.4297699999999999 0.9648849999999999 0.8430599999999999
0.2419600000000000 0.8709800000000000 0.9134649999999997
0.2124900000000000 0.8562450000000000 0.8977049999999999
0.3283650000000000 0.6097350000000000 0.9869899999999998
0.2172050000000000 0.8898350000000000 0.9345999999999998
0.2813700000000000 0.6097350000000000 0.9869899999999998
0.1726300000000001 0.8898350000000000 0.9345999999999998
0.3902649999999999 0.6716350000000000 0.9869899999999998
0.1101650000000001 0.7827950000000001 0.9345999999999998
0.3283650000000000 0.7186300000000000 0.9869899999999998
0.2172050000000001 0.8273700000000000 0.9345999999999998
0.1097350000000000 0.7813700000000000 0.5130099999999999
0.3898349999999999 0.6726300000000001 0.5653999999999999
0.2186300000000000 0.8283650000000000 0.5130099999999999
0.3273700000000000 0.7172050000000001 0.5653999999999999
0.1716350000000000 0.8902650000000000 0.5130099999999999
0.2827950000000000 0.6101650000000001 0.5653999999999999
0.1666683333333333 0.8333316666666666 0.7481816666666664
0.3125233333333333 0.6874766666666666 0.8073266666666664
0.2982183333333333 0.7017816666666666 0.8236066666666664
0.2043133333333333 0.7956866666666665 0.7532016666666665
0.1895783333333332 0.8104216666666665 0.7689616666666664
0.0519633333333334 0.5569316666666665 0.6796766666666666
0.1607033333333333 0.7768316666666666 0.7320666666666665
0.3125233333333333 0.6250466666666666 0.8073266666666664
0.2982183333333333 0.5964366666666666 0.8236066666666664
0.2043133333333333 0.9086266666666665 0.7532016666666665
0.1895783333333333 0.8791566666666666 0.7689616666666664
0.4430683333333334 0.9950316666666665 0.6796766666666666
0.2231683333333334 0.8838716666666666 0.7320666666666665
0.0000033333333334 0.5000016666666666 0.6644366666666666
0.3749533333333332 0.6874766666666666 0.8073266666666664
0.4035633333333333 0.7017816666666666 0.8236066666666664
0.0913733333333333 0.7956866666666665 0.7532016666666665
0.1208433333333333 0.8104216666666667 0.7689616666666664
0.0049683333333332 0.9480366666666665 0.6796766666666666
0.1161283333333333 0.8392966666666666 0.7320666666666665
0.1666683333333334 0.8333316666666666 0.6688966666666666
0.3541433333333332 0.6458566666666666 0.5260066666666665
0.3684483333333333 0.6315516666666666 0.5097266666666666
0.4623533333333332 0.5376466666666666 0.5801316666666666
0.4770883333333333 0.5229116666666667 0.5643716666666667
0.2235983333333334 0.8852966666666666 0.6536566666666666
0.4434983333333334 0.9940366666666667 0.6012666666666665
0.3541433333333333 0.7082866666666666 0.5260066666666665
0.3684483333333333 0.7368966666666666 0.5097266666666666
0.4623533333333333 0.9247066666666667 0.5801316666666666
0.4770883333333332 0.9541766666666667 0.5643716666666667
0.1147033333333334 0.8383016666666665 0.6536566666666666
0.0059633333333333 0.9494616666666665 0.6012666666666665
0.0000033333333334 0.5000016666666667 0.5851516666666665
0.2917133333333332 0.6458566666666666 0.5260066666666665
0.2631033333333332 0.6315516666666666 0.5097266666666666
0.0752933333333334 0.5376466666666666 0.5801316666666666
0.0458233333333334 0.5229116666666667 0.5643716666666667
0.1616983333333334 0.7764016666666667 0.6536566666666666
0.0505383333333334 0.5565016666666666 0.6012666666666665
0.1147033333333334 0.7764016666666667 0.6536566666666666
0.0059633333333334 0.5565016666666666 0.6012666666666665
0.2235983333333334 0.8383016666666665 0.6536566666666666
0.4434983333333333 0.9494616666666665 0.6012666666666665
0.1616983333333334 0.8852966666666666 0.6536566666666666
0.0505383333333335 0.9940366666666667 0.6012666666666665
0.4430683333333333 0.9480366666666665 0.6796766666666666
0.2231683333333333 0.8392966666666666 0.7320666666666665
0.0519633333333334 0.9950316666666665 0.6796766666666666
0.1607033333333334 0.8838716666666666 0.7320666666666665
0.0049683333333333 0.5569316666666665 0.6796766666666666
0.1161283333333334 0.7768316666666666 0.7320666666666665
0.3333316666666667 0.6666683333333333 0.8311033333333332
0.1458566666666666 0.8541433333333333 0.9739933333333330
0.1315516666666667 0.8684483333333334 0.9902733333333332
0.0376466666666666 0.9623533333333334 0.9198683333333331
0.0229116666666668 0.9770883333333333 0.9356283333333332
0.3852966666666666 0.7235983333333333 0.8463433333333332
0.4940366666666666 0.9434983333333334 0.8987333333333332
0.1458566666666667 0.7917133333333333 0.9739933333333330
0.1315516666666667 0.7631033333333334 0.9902733333333332
0.0376466666666667 0.5752933333333333 0.9198683333333331
0.0229116666666667 0.5458233333333333 0.9356283333333332
0.2764016666666667 0.6616983333333333 0.8463433333333332
0.0565016666666667 0.5505383333333334 0.8987333333333332
0.4999966666666666 0.9999983333333334 0.9148483333333332
0.2082866666666666 0.8541433333333333 0.9739933333333330
0.2368966666666666 0.8684483333333334 0.9902733333333332
0.4247066666666666 0.9623533333333334 0.9198683333333331
0.4541766666666667 0.9770883333333333 0.9356283333333332
0.3383016666666666 0.6147033333333334 0.8463433333333332
0.4494616666666666 0.5059633333333333 0.8987333333333332
0.3333316666666666 0.6666683333333333 0.7518183333333331
0.1874766666666666 0.8125233333333330 0.6926733333333331
0.2017816666666667 0.7982183333333331 0.6763933333333332
0.2956866666666667 0.7043133333333333 0.7467983333333332
0.3104216666666667 0.6895783333333332 0.7310383333333332
0.0569316666666666 0.5519633333333334 0.8203233333333332
0.2768316666666666 0.6607033333333333 0.7679333333333332
0.1874766666666666 0.8749533333333332 0.6926733333333331
0.2017816666666667 0.9035633333333332 0.6763933333333332
0.2956866666666667 0.5913733333333333 0.7467983333333332
0.3104216666666667 0.6208433333333333 0.7310383333333332
0.4480366666666666 0.5049683333333332 0.8203233333333332
0.3392966666666667 0.6161283333333334 0.7679333333333332
0.4999966666666666 0.9999983333333333 0.8355633333333332
0.1250466666666666 0.8125233333333330 0.6926733333333331
0.0964366666666666 0.7982183333333331 0.6763933333333332
0.4086266666666666 0.7043133333333333 0.7467983333333332
0.3791566666666666 0.6895783333333332 0.7310383333333332
0.4950316666666666 0.9430683333333334 0.8203233333333332
0.3838716666666666 0.7231683333333333 0.7679333333333332
0.4480366666666666 0.9430683333333334 0.8203233333333332
0.3392966666666667 0.7231683333333333 0.7679333333333332
0.0569316666666667 0.5049683333333332 0.8203233333333332
0.2768316666666666 0.6161283333333334 0.7679333333333332
0.4950316666666666 0.5519633333333334 0.8203233333333332
0.3838716666666666 0.6607033333333333 0.7679333333333332
0.2764016666666667 0.6147033333333334 0.8463433333333332
0.0565016666666667 0.5059633333333333 0.8987333333333332
0.3852966666666666 0.6616983333333333 0.8463433333333332
0.4940366666666667 0.5505383333333334 0.8987333333333332
0.3383016666666667 0.7235983333333333 0.8463433333333332
0.4494616666666666 0.9434983333333334 0.8987333333333332
0.6666650000000000 0.3333349999999999 0.4977699999999999
0.8333349999999998 0.1666650000000000 0.0815150000000000
0.9791899999999998 0.0208100000000000 0.1406600000000000
0.9648849999999999 0.0351150000000000 0.1569400000000000
0.8709799999999998 0.1290200000000000 0.0865350000000000
0.8562449999999998 0.1437550000000000 0.1022950000000000
0.7186299999999999 0.3902650000000000 0.0130100000000000
0.8273699999999998 0.1101650000000000 0.0654000000000000
0.9791899999999998 0.4583799999999999 0.1406600000000000
0.9648849999999999 0.4297700000000000 0.1569400000000000
0.8709799999999999 0.2419600000000000 0.0865350000000000
0.8562449999999999 0.2124900000000000 0.1022950000000000
0.6097349999999999 0.3283650000000000 0.0130100000000000
0.8898349999999998 0.2172050000000000 0.0654000000000000
0.5416199999999999 0.0208100000000000 0.1406600000000000
0.5702299999999999 0.0351150000000000 0.1569400000000000
0.7580399999999999 0.1290200000000000 0.0865350000000000
0.7875099999999999 0.1437550000000000 0.1022950000000000
0.6716349999999999 0.2813700000000000 0.0130100000000000
0.7827949999999999 0.1726300000000000 0.0654000000000000
0.8333349999999998 0.1666650000000000 0.0022300000000000
0.6666650000000000 0.3333350000000000 0.4184849999999999
0.5208099999999999 0.4791899999999999 0.3593399999999999
0.5351149999999999 0.4648849999999999 0.3430600000000000
0.6290200000000000 0.3709800000000000 0.4134649999999999
0.6437549999999999 0.3562450000000000 0.3977049999999999
0.8902649999999998 0.2186300000000000 0.4869899999999999
0.6101649999999998 0.3273700000000000 0.4345999999999999
0.5208099999999999 0.0416200000000000 0.3593399999999999
0.5351149999999999 0.0702300000000000 0.3430600000000000
0.6290199999999999 0.2580400000000000 0.4134649999999999
0.6437550000000000 0.2875100000000000 0.3977049999999999
0.7813699999999999 0.1716350000000000 0.4869899999999999
0.6726300000000000 0.2827950000000000 0.4345999999999999
0.9583799999999997 0.4791899999999999 0.3593399999999999
0.9297699999999999 0.4648849999999999 0.3430600000000000
0.7419599999999998 0.3709800000000000 0.4134649999999999
0.7124899999999998 0.3562450000000000 0.3977049999999999
0.8283649999999998 0.1097350000000000 0.4869899999999999
0.7172049999999999 0.3898350000000000 0.4345999999999999
0.7813699999999998 0.1097350000000000 0.4869899999999999
0.6726300000000000 0.3898350000000000 0.4345999999999999
0.8902649999999999 0.1716350000000000 0.4869899999999999
0.6101649999999998 0.2827950000000000 0.4345999999999999
0.8283649999999998 0.2186300000000000 0.4869899999999999
0.7172049999999999 0.3273700000000000 0.4345999999999999
0.6097349999999999 0.2813700000000000 0.0130100000000000
0.8898349999999998 0.1726300000000000 0.0654000000000000
0.7186299999999999 0.3283650000000000 0.0130100000000000
0.8273699999999998 0.2172050000000000 0.0654000000000000
0.6716349999999999 0.3902650000000000 0.0130100000000000
0.7827949999999999 0.1101650000000000 0.0654000000000000
0.6666683333333331 0.3333316666666667 0.2481816666666666
0.8125233333333332 0.1874766666666667 0.3073266666666666
0.7982183333333331 0.2017816666666666 0.3236066666666666
0.7043133333333331 0.2956866666666667 0.2532016666666666
0.6895783333333332 0.3104216666666667 0.2689616666666666
0.5519633333333334 0.0569316666666666 0.1796766666666666
0.6607033333333331 0.2768316666666666 0.2320666666666666
0.8125233333333330 0.1250466666666666 0.3073266666666666
0.7982183333333330 0.0964366666666666 0.3236066666666666
0.7043133333333331 0.4086266666666666 0.2532016666666666
0.6895783333333332 0.3791566666666666 0.2689616666666666
0.9430683333333334 0.4950316666666666 0.1796766666666666
0.7231683333333331 0.3838716666666666 0.2320666666666666
0.8749533333333330 0.1874766666666666 0.3073266666666666
0.9035633333333331 0.2017816666666666 0.3236066666666666
0.5913733333333332 0.2956866666666667 0.2532016666666666
0.6208433333333333 0.3104216666666667 0.2689616666666666
0.5049683333333332 0.4480366666666667 0.1796766666666666
0.6161283333333333 0.3392966666666667 0.2320666666666666
0.6666683333333332 0.3333316666666667 0.1688966666666667
0.8541433333333331 0.1458566666666666 0.0260066666666666
0.8684483333333332 0.1315516666666666 0.0097266666666667
0.9623533333333331 0.0376466666666666 0.0801316666666666
0.9770883333333331 0.0229116666666667 0.0643716666666666
0.7235983333333333 0.3852966666666666 0.1536566666666666
0.9434983333333332 0.4940366666666666 0.1012666666666666
0.8541433333333330 0.2082866666666666 0.0260066666666666
0.8684483333333330 0.2368966666666666 0.0097266666666667
0.9623533333333332 0.4247066666666666 0.0801316666666666
0.9770883333333332 0.4541766666666667 0.0643716666666666
0.6147033333333334 0.3383016666666666 0.1536566666666666
0.5059633333333332 0.4494616666666665 0.1012666666666666
0.7917133333333332 0.1458566666666667 0.0260066666666666
0.7631033333333331 0.1315516666666667 0.0097266666666667
0.5752933333333332 0.0376466666666667 0.0801316666666666
0.5458233333333332 0.0229116666666667 0.0643716666666666
0.6616983333333333 0.2764016666666666 0.1536566666666666
0.5505383333333332 0.0565016666666667 0.1012666666666666
0.6147033333333334 0.2764016666666666 0.1536566666666666
0.5059633333333332 0.0565016666666667 0.1012666666666666
0.7235983333333332 0.3383016666666666 0.1536566666666666
0.9434983333333331 0.4494616666666665 0.1012666666666666
0.6616983333333332 0.3852966666666666 0.1536566666666666
0.5505383333333332 0.4940366666666666 0.1012666666666666
0.9430683333333333 0.4480366666666667 0.1796766666666666
0.7231683333333332 0.3392966666666667 0.2320666666666666
0.5519633333333334 0.4950316666666666 0.1796766666666666
0.6607033333333331 0.3838716666666666 0.2320666666666666
0.5049683333333332 0.0569316666666666 0.1796766666666666
0.6161283333333332 0.2768316666666666 0.2320666666666666
0.8333316666666665 0.1666683333333333 0.3311033333333332
0.6458566666666665 0.3541433333333333 0.4739933333333333
0.6315516666666665 0.3684483333333333 0.4902733333333333
0.5376466666666665 0.4623533333333332 0.4198683333333332
0.5229116666666666 0.4770883333333333 0.4356283333333332
0.8852966666666664 0.2235983333333333 0.3463433333333333
0.9940366666666663 0.4434983333333333 0.3987333333333332
0.6458566666666665 0.2917133333333333 0.4739933333333333
0.6315516666666665 0.2631033333333332 0.4902733333333333
0.5376466666666665 0.0752933333333333 0.4198683333333332
0.5229116666666666 0.0458233333333333 0.4356283333333332
0.7764016666666665 0.1616983333333333 0.3463433333333333
0.5565016666666666 0.0505383333333334 0.3987333333333332
0.7082866666666665 0.3541433333333333 0.4739933333333333
0.7368966666666666 0.3684483333333333 0.4902733333333333
0.9247066666666665 0.4623533333333333 0.4198683333333332
0.9541766666666665 0.4770883333333333 0.4356283333333332
0.8383016666666664 0.1147033333333333 0.3463433333333333
0.9494616666666664 0.0059633333333333 0.3987333333333332
0.8333316666666664 0.1666683333333333 0.2518183333333333
0.6874766666666665 0.3125233333333332 0.1926733333333333
0.7017816666666665 0.2982183333333333 0.1763933333333333
0.7956866666666664 0.2043133333333334 0.2467983333333333
0.8104216666666665 0.1895783333333333 0.2310383333333333
0.5569316666666665 0.0519633333333334 0.3203233333333332
0.7768316666666664 0.1607033333333333 0.2679333333333332
0.6874766666666665 0.3749533333333333 0.1926733333333333
0.7017816666666665 0.4035633333333333 0.1763933333333333
0.7956866666666663 0.0913733333333333 0.2467983333333333
0.8104216666666665 0.1208433333333333 0.2310383333333333
0.9480366666666664 0.0049683333333332 0.3203233333333332
0.8392966666666665 0.1161283333333333 0.2679333333333332
0.6250466666666665 0.3125233333333333 0.1926733333333333
0.5964366666666665 0.2982183333333333 0.1763933333333333
0.9086266666666665 0.2043133333333333 0.2467983333333333
0.8791566666666664 0.1895783333333333 0.2310383333333333
0.9950316666666664 0.4430683333333333 0.3203233333333332
0.8838716666666664 0.2231683333333333 0.2679333333333332
0.9480366666666664 0.4430683333333333 0.3203233333333332
0.8392966666666664 0.2231683333333333 0.2679333333333332
0.5569316666666665 0.0049683333333332 0.3203233333333332
0.7768316666666665 0.1161283333333333 0.2679333333333332
0.9950316666666664 0.0519633333333334 0.3203233333333332
0.8838716666666664 0.1607033333333333 0.2679333333333332
0.7764016666666664 0.1147033333333333 0.3463433333333333
0.5565016666666666 0.0059633333333333 0.3987333333333332
0.8852966666666664 0.1616983333333333 0.3463433333333333
0.9940366666666665 0.0505383333333334 0.3987333333333332
0.8383016666666664 0.2235983333333333 0.3463433333333333
0.9494616666666664 0.4434983333333333 0.3987333333333332
0.6666649999999998 0.3333350000000000 0.9977699999999999
0.8333349999999999 0.1666650000000000 0.5815149999999999
0.9791899999999998 0.0208100000000000 0.6406599999999999
0.9648849999999999 0.0351150000000000 0.6569399999999999
0.8709799999999999 0.1290200000000000 0.5865349999999999
0.8562449999999998 0.1437550000000000 0.6022949999999999
0.7186300000000000 0.3902650000000000 0.5130099999999999
0.8273699999999999 0.1101650000000000 0.5653999999999999
0.9791899999999998 0.4583800000000000 0.6406599999999999
0.9648849999999999 0.4297700000000000 0.6569399999999999
0.8709800000000000 0.2419600000000000 0.5865349999999999
0.8562449999999999 0.2124900000000000 0.6022949999999999
0.6097349999999999 0.3283650000000000 0.5130099999999999
0.8898349999999999 0.2172050000000000 0.5653999999999999
0.5416199999999998 0.0208100000000000 0.6406599999999999
0.5702299999999998 0.0351150000000000 0.6569399999999999
0.7580400000000000 0.1290200000000000 0.5865349999999999
0.7875099999999999 0.1437550000000000 0.6022949999999999
0.6716349999999999 0.2813700000000000 0.5130099999999999
0.7827950000000000 0.1726300000000000 0.5653999999999999
0.8333349999999998 0.1666650000000000 0.5022299999999998
0.6666650000000000 0.3333349999999999 0.9184849999999999
0.5208099999999999 0.4791900000000000 0.8593399999999999
0.5351150000000000 0.4648850000000000 0.8430599999999999
0.6290200000000000 0.3709799999999999 0.9134649999999997
0.6437550000000000 0.3562449999999999 0.8977049999999999
0.8902649999999999 0.2186300000000000 0.9869899999999998
0.6101650000000000 0.3273699999999999 0.9345999999999998
0.5208100000000000 0.0416200000000000 0.8593399999999999
0.5351149999999999 0.0702300000000000 0.8430599999999999
0.6290199999999999 0.2580400000000000 0.9134649999999997
0.6437550000000000 0.2875100000000000 0.8977049999999999
0.7813700000000000 0.1716350000000000 0.9869899999999998
0.6726300000000000 0.2827950000000000 0.9345999999999998
0.9583799999999999 0.4791900000000000 0.8593399999999999
0.9297700000000000 0.4648850000000000 0.8430599999999999
0.7419600000000000 0.3709799999999999 0.9134649999999997
0.7124899999999998 0.3562450000000000 0.8977049999999999
0.8283649999999999 0.1097350000000000 0.9869899999999998
0.7172050000000000 0.3898349999999999 0.9345999999999998
0.7813699999999999 0.1097350000000000 0.9869899999999998
0.6726300000000001 0.3898349999999999 0.9345999999999998
0.8902650000000000 0.1716350000000000 0.9869899999999998
0.6101650000000000 0.2827950000000000 0.9345999999999998
0.8283649999999999 0.2186300000000000 0.9869899999999998
0.7172049999999999 0.3273699999999999 0.9345999999999998
0.6097350000000000 0.2813700000000000 0.5130099999999999
0.8898349999999998 0.1726300000000000 0.5653999999999999
0.7186299999999999 0.3283650000000000 0.5130099999999999
0.8273699999999999 0.2172050000000000 0.5653999999999999
0.6716350000000000 0.3902650000000000 0.5130099999999999
0.7827950000000000 0.1101650000000000 0.5653999999999999
0.6666683333333332 0.3333316666666667 0.7481816666666664
0.8125233333333333 0.1874766666666666 0.8073266666666664
0.7982183333333333 0.2017816666666667 0.8236066666666664
0.7043133333333331 0.2956866666666666 0.7532016666666665
0.6895783333333332 0.3104216666666667 0.7689616666666664
0.5519633333333333 0.0569316666666666 0.6796766666666666
0.6607033333333331 0.2768316666666666 0.7320666666666665
0.8125233333333332 0.1250466666666666 0.8073266666666664
0.7982183333333331 0.0964366666666666 0.8236066666666664
0.7043133333333332 0.4086266666666666 0.7532016666666665
0.6895783333333332 0.3791566666666666 0.7689616666666664
0.9430683333333333 0.4950316666666666 0.6796766666666666
0.7231683333333331 0.3838716666666665 0.7320666666666665
0.8749533333333331 0.1874766666666666 0.8073266666666664
0.9035633333333332 0.2017816666666667 0.8236066666666664
0.5913733333333332 0.2956866666666666 0.7532016666666665
0.6208433333333333 0.3104216666666667 0.7689616666666664
0.5049683333333331 0.4480366666666666 0.6796766666666666
0.6161283333333333 0.3392966666666667 0.7320666666666665
0.6666683333333332 0.3333316666666667 0.6688966666666666
0.8541433333333333 0.1458566666666666 0.5260066666666665
0.8684483333333332 0.1315516666666666 0.5097266666666666
0.9623533333333332 0.0376466666666666 0.5801316666666666
0.9770883333333332 0.0229116666666667 0.5643716666666667
0.7235983333333332 0.3852966666666666 0.6536566666666666
0.9434983333333332 0.4940366666666666 0.6012666666666665
0.8541433333333331 0.2082866666666666 0.5260066666666665
0.8684483333333330 0.2368966666666666 0.5097266666666666
0.9623533333333333 0.4247066666666666 0.5801316666666666
0.9770883333333333 0.4541766666666667 0.5643716666666667
0.6147033333333333 0.3383016666666666 0.6536566666666666
0.5059633333333332 0.4494616666666666 0.6012666666666665
0.7917133333333333 0.1458566666666667 0.5260066666666665
0.7631033333333331 0.1315516666666667 0.5097266666666666
0.5752933333333332 0.0376466666666667 0.5801316666666666
0.5458233333333332 0.0229116666666667 0.5643716666666667
0.6616983333333332 0.2764016666666667 0.6536566666666666
0.5505383333333331 0.0565016666666667 0.6012666666666665
0.6147033333333333 0.2764016666666667 0.6536566666666666
0.5059633333333332 0.0565016666666667 0.6012666666666665
0.7235983333333331 0.3383016666666666 0.6536566666666666
0.9434983333333331 0.4494616666666666 0.6012666666666665
0.6616983333333331 0.3852966666666666 0.6536566666666666
0.5505383333333331 0.4940366666666666 0.6012666666666665
0.9430683333333333 0.4480366666666666 0.6796766666666666
0.7231683333333332 0.3392966666666667 0.7320666666666665
0.5519633333333333 0.4950316666666666 0.6796766666666666
0.6607033333333331 0.3838716666666665 0.7320666666666665
0.5049683333333331 0.0569316666666666 0.6796766666666666
0.6161283333333332 0.2768316666666666 0.7320666666666665
0.8333316666666666 0.1666683333333333 0.8311033333333332
0.6458566666666666 0.3541433333333333 0.9739933333333330
0.6315516666666666 0.3684483333333333 0.9902733333333332
0.5376466666666666 0.4623533333333332 0.9198683333333331
0.5229116666666667 0.4770883333333333 0.9356283333333332
0.8852966666666665 0.2235983333333333 0.8463433333333332
0.9940366666666665 0.4434983333333333 0.8987333333333332
0.6458566666666666 0.2917133333333333 0.9739933333333330
0.6315516666666665 0.2631033333333332 0.9902733333333332
0.5376466666666665 0.0752933333333333 0.9198683333333331
0.5229116666666667 0.0458233333333333 0.9356283333333332
0.7764016666666667 0.1616983333333333 0.8463433333333332
0.5565016666666667 0.0505383333333333 0.8987333333333332
0.7082866666666665 0.3541433333333333 0.9739933333333330
0.7368966666666666 0.3684483333333333 0.9902733333333332
0.9247066666666666 0.4623533333333333 0.9198683333333331
0.9541766666666666 0.4770883333333333 0.9356283333333332
0.8383016666666665 0.1147033333333333 0.8463433333333332
0.9494616666666665 0.0059633333333333 0.8987333333333332
0.8333316666666665 0.1666683333333333 0.7518183333333331
0.6874766666666665 0.3125233333333333 0.6926733333333331
0.7017816666666665 0.2982183333333333 0.6763933333333332
0.7956866666666665 0.2043133333333333 0.7467983333333332
0.8104216666666665 0.1895783333333333 0.7310383333333332
0.5569316666666665 0.0519633333333334 0.8203233333333332
0.7768316666666665 0.1607033333333333 0.7679333333333332
0.6874766666666664 0.3749533333333333 0.6926733333333331
0.7017816666666664 0.4035633333333333 0.6763933333333332
0.7956866666666664 0.0913733333333333 0.7467983333333332
0.8104216666666666 0.1208433333333333 0.7310383333333332
0.9480366666666665 0.0049683333333332 0.8203233333333332
0.8392966666666666 0.1161283333333333 0.7679333333333332
0.6250466666666665 0.3125233333333333 0.6926733333333331
0.5964366666666665 0.2982183333333334 0.6763933333333332
0.9086266666666666 0.2043133333333333 0.7467983333333332
0.8791566666666665 0.1895783333333333 0.7310383333333332
0.9950316666666665 0.4430683333333334 0.8203233333333332
0.8838716666666665 0.2231683333333332 0.7679333333333332
0.9480366666666665 0.4430683333333334 0.8203233333333332
0.8392966666666665 0.2231683333333332 0.7679333333333332
0.5569316666666666 0.0049683333333332 0.8203233333333332
0.7768316666666666 0.1161283333333333 0.7679333333333332
0.9950316666666665 0.0519633333333334 0.8203233333333332
0.8838716666666664 0.1607033333333333 0.7679333333333332
0.7764016666666665 0.1147033333333333 0.8463433333333332
0.5565016666666666 0.0059633333333333 0.8987333333333332
0.8852966666666664 0.1616983333333333 0.8463433333333332
0.9940366666666666 0.0505383333333333 0.8987333333333332
0.8383016666666665 0.2235983333333333 0.8463433333333332
0.9494616666666665 0.4434983333333333 0.8987333333333332
0.6666650000000000 0.8333349999999999 0.4977699999999999
0.8333349999999999 0.6666650000000001 0.0815150000000000
0.9791899999999998 0.5208100000000000 0.1406600000000000
0.9648849999999998 0.5351150000000001 0.1569400000000000
0.8709799999999999 0.6290200000000000 0.0865350000000000
0.8562449999999998 0.6437550000000000 0.1022950000000000
0.7186299999999999 0.8902650000000000 0.0130100000000000
0.8273699999999998 0.6101650000000000 0.0654000000000000
0.9791899999999999 0.9583799999999999 0.1406600000000000
0.9648849999999999 0.9297700000000000 0.1569400000000000
0.8709799999999999 0.7419600000000000 0.0865350000000000
0.8562449999999999 0.7124900000000000 0.1022950000000000
0.6097349999999999 0.8283649999999999 0.0130100000000000
0.8898349999999998 0.7172050000000000 0.0654000000000000
0.5416200000000000 0.5208100000000000 0.1406600000000000
0.5702300000000000 0.5351150000000001 0.1569400000000000
0.7580399999999999 0.6290200000000000 0.0865350000000000
0.7875099999999999 0.6437550000000001 0.1022950000000000
0.6716349999999999 0.7813700000000000 0.0130100000000000
0.7827949999999999 0.6726300000000001 0.0654000000000000
0.8333349999999999 0.6666650000000001 0.0022300000000000
0.6666650000000000 0.8333349999999999 0.4184849999999999
0.5208100000000000 0.9791900000000001 0.3593399999999999
0.5351149999999999 0.9648850000000000 0.3430600000000000
0.6290199999999999 0.8709800000000000 0.4134649999999999
0.6437550000000000 0.8562450000000000 0.3977049999999999
0.8902650000000000 0.7186300000000000 0.4869899999999999
0.6101650000000000 0.8273700000000000 0.4345999999999999
0.5208099999999999 0.5416200000000000 0.3593399999999999
0.5351149999999999 0.5702299999999999 0.3430600000000000
0.6290200000000000 0.7580400000000002 0.4134649999999999
0.6437550000000001 0.7875100000000000 0.3977049999999999
0.7813699999999999 0.6716350000000000 0.4869899999999999
0.6726300000000001 0.7827950000000001 0.4345999999999999
0.9583800000000000 0.9791900000000001 0.3593399999999999
0.9297699999999999 0.9648850000000000 0.3430600000000000
0.7419599999999998 0.8709800000000000 0.4134649999999999
0.7124899999999998 0.8562450000000000 0.3977049999999999
0.8283649999999999 0.6097350000000000 0.4869899999999999
0.7172050000000000 0.8898349999999999 0.4345999999999999
0.7813699999999999 0.6097350000000000 0.4869899999999999
0.6726300000000001 0.8898349999999999 0.4345999999999999
0.8902649999999999 0.6716350000000000 0.4869899999999999
0.6101650000000000 0.7827950000000001 0.4345999999999999
0.8283650000000000 0.7186300000000000 0.4869899999999999
0.7172050000000000 0.8273700000000000 0.4345999999999999
0.6097349999999999 0.7813700000000000 0.0130100000000000
0.8898349999999998 0.6726300000000001 0.0654000000000000
0.7186299999999999 0.8283649999999999 0.0130100000000000
0.8273699999999998 0.7172050000000000 0.0654000000000000
0.6716349999999999 0.8902650000000000 0.0130100000000000
0.7827949999999999 0.6101650000000000 0.0654000000000000
0.6666683333333332 0.8333316666666665 0.2481816666666666
0.8125233333333332 0.6874766666666666 0.3073266666666666
0.7982183333333333 0.7017816666666666 0.3236066666666666
0.7043133333333331 0.7956866666666664 0.2532016666666666
0.6895783333333331 0.8104216666666665 0.2689616666666666
0.5519633333333334 0.5569316666666667 0.1796766666666666
0.6607033333333332 0.7768316666666665 0.2320666666666666
0.8125233333333332 0.6250466666666665 0.3073266666666666
0.7982183333333331 0.5964366666666666 0.3236066666666666
0.7043133333333331 0.9086266666666665 0.2532016666666666
0.6895783333333332 0.8791566666666665 0.2689616666666666
0.9430683333333333 0.9950316666666666 0.1796766666666666
0.7231683333333332 0.8838716666666665 0.2320666666666666
0.8749533333333331 0.6874766666666666 0.3073266666666666
0.9035633333333332 0.7017816666666666 0.3236066666666666
0.5913733333333331 0.7956866666666664 0.2532016666666666
0.6208433333333332 0.8104216666666666 0.2689616666666666
0.5049683333333332 0.9480366666666665 0.1796766666666666
0.6161283333333333 0.8392966666666666 0.2320666666666666
0.6666683333333333 0.8333316666666666 0.1688966666666667
0.8541433333333331 0.6458566666666666 0.0260066666666666
0.8684483333333332 0.6315516666666666 0.0097266666666667
0.9623533333333331 0.5376466666666666 0.0801316666666666
0.9770883333333332 0.5229116666666667 0.0643716666666666
0.7235983333333333 0.8852966666666666 0.1536566666666666
0.9434983333333332 0.9940366666666667 0.1012666666666666
0.8541433333333330 0.7082866666666665 0.0260066666666666
0.8684483333333332 0.7368966666666666 0.0097266666666667
0.9623533333333333 0.9247066666666666 0.0801316666666666
0.9770883333333331 0.9541766666666666 0.0643716666666666
0.6147033333333334 0.8383016666666665 0.1536566666666666
0.5059633333333333 0.9494616666666665 0.1012666666666666
0.7917133333333332 0.6458566666666666 0.0260066666666666
0.7631033333333331 0.6315516666666666 0.0097266666666667
0.5752933333333332 0.5376466666666666 0.0801316666666666
0.5458233333333333 0.5229116666666667 0.0643716666666666
0.6616983333333333 0.7764016666666667 0.1536566666666666
0.5505383333333332 0.5565016666666667 0.1012666666666666
0.6147033333333334 0.7764016666666667 0.1536566666666666
0.5059633333333332 0.5565016666666667 0.1012666666666666
0.7235983333333333 0.8383016666666665 0.1536566666666666
0.9434983333333332 0.9494616666666665 0.1012666666666666
0.6616983333333333 0.8852966666666666 0.1536566666666666
0.5505383333333334 0.9940366666666667 0.1012666666666666
0.9430683333333333 0.9480366666666665 0.1796766666666666
0.7231683333333332 0.8392966666666666 0.2320666666666666
0.5519633333333334 0.9950316666666666 0.1796766666666666
0.6607033333333332 0.8838716666666665 0.2320666666666666
0.5049683333333332 0.5569316666666667 0.1796766666666666
0.6161283333333333 0.7768316666666665 0.2320666666666666
0.8333316666666666 0.6666683333333333 0.3311033333333332
0.6458566666666665 0.8541433333333333 0.4739933333333333
0.6315516666666666 0.8684483333333333 0.4902733333333333
0.5376466666666666 0.9623533333333333 0.4198683333333332
0.5229116666666667 0.9770883333333333 0.4356283333333332
0.8852966666666666 0.7235983333333332 0.3463433333333333
0.9940366666666666 0.9434983333333333 0.3987333333333332
0.6458566666666666 0.7917133333333333 0.4739933333333333
0.6315516666666666 0.7631033333333332 0.4902733333333333
0.5376466666666666 0.5752933333333333 0.4198683333333332
0.5229116666666666 0.5458233333333332 0.4356283333333332
0.7764016666666664 0.6616983333333332 0.3463433333333333
0.5565016666666666 0.5505383333333334 0.3987333333333332
0.7082866666666665 0.8541433333333333 0.4739933333333333
0.7368966666666666 0.8684483333333333 0.4902733333333333
0.9247066666666667 0.9623533333333333 0.4198683333333332
0.9541766666666666 0.9770883333333333 0.4356283333333332
0.8383016666666665 0.6147033333333334 0.3463433333333333
0.9494616666666664 0.5059633333333333 0.3987333333333332
0.8333316666666666 0.6666683333333333 0.2518183333333333
0.6874766666666666 0.8125233333333332 0.1926733333333333
0.7017816666666666 0.7982183333333333 0.1763933333333333
0.7956866666666664 0.7043133333333332 0.2467983333333333
0.8104216666666665 0.6895783333333333 0.2310383333333333
0.5569316666666665 0.5519633333333333 0.3203233333333332
0.7768316666666665 0.6607033333333332 0.2679333333333332
0.6874766666666666 0.8749533333333332 0.1926733333333333
0.7017816666666666 0.9035633333333333 0.1763933333333333
0.7956866666666664 0.5913733333333332 0.2467983333333333
0.8104216666666665 0.6208433333333333 0.2310383333333333
0.9480366666666664 0.5049683333333331 0.3203233333333332
0.8392966666666666 0.6161283333333334 0.2679333333333332
0.6250466666666666 0.8125233333333332 0.1926733333333333
0.5964366666666666 0.7982183333333333 0.1763933333333333
0.9086266666666665 0.7043133333333332 0.2467983333333333
0.8791566666666665 0.6895783333333333 0.2310383333333333
0.9950316666666666 0.9430683333333335 0.3203233333333332
0.8838716666666665 0.7231683333333332 0.2679333333333332
0.9480366666666665 0.9430683333333335 0.3203233333333332
0.8392966666666666 0.7231683333333332 0.2679333333333332
0.5569316666666665 0.5049683333333331 0.3203233333333332
0.7768316666666665 0.6161283333333334 0.2679333333333332
0.9950316666666664 0.5519633333333333 0.3203233333333332
0.8838716666666665 0.6607033333333332 0.2679333333333332
0.7764016666666665 0.6147033333333334 0.3463433333333333
0.5565016666666666 0.5059633333333333 0.3987333333333332
0.8852966666666665 0.6616983333333332 0.3463433333333333
0.9940366666666666 0.5505383333333334 0.3987333333333332
0.8383016666666665 0.7235983333333332 0.3463433333333333
0.9494616666666665 0.9434983333333333 0.3987333333333332
0.6666650000000000 0.8333349999999998 0.9977699999999999
0.8333349999999999 0.6666650000000002 0.5815149999999999
0.9791899999999998 0.5208099999999999 0.6406599999999999
0.9648849999999998 0.5351149999999999 0.6569399999999999
0.8709799999999999 0.6290200000000000 0.5865349999999999
0.8562449999999997 0.6437549999999999 0.6022949999999999
0.7186300000000000 0.8902650000000000 0.5130099999999999
0.8273699999999999 0.6101650000000001 0.5653999999999999
0.9791899999999998 0.9583799999999999 0.6406599999999999
0.9648849999999999 0.9297699999999999 0.6569399999999999
0.8709799999999999 0.7419600000000000 0.5865349999999999
0.8562449999999998 0.7124899999999998 0.6022949999999999
0.6097349999999999 0.8283650000000000 0.5130099999999999
0.8898349999999999 0.7172050000000001 0.5653999999999999
0.5416199999999999 0.5208099999999999 0.6406599999999999
0.5702299999999999 0.5351149999999999 0.6569399999999999
0.7580400000000000 0.6290200000000000 0.5865349999999999
0.7875099999999999 0.6437550000000001 0.6022949999999999
0.6716349999999999 0.7813700000000000 0.5130099999999999
0.7827949999999999 0.6726300000000001 0.5653999999999999
0.8333349999999999 0.6666650000000002 0.5022299999999998
0.6666650000000001 0.8333349999999999 0.9184849999999999
0.5208100000000000 0.9791900000000000 0.8593399999999999
0.5351149999999999 0.9648849999999999 0.8430599999999999
0.6290200000000000 0.8709800000000000 0.9134649999999997
0.6437550000000001 0.8562450000000000 0.8977049999999999
0.8902650000000000 0.7186300000000000 0.9869899999999998
0.6101650000000001 0.8273700000000000 0.9345999999999998
0.5208100000000000 0.5416200000000000 0.8593399999999999
0.5351149999999999 0.5702300000000000 0.8430599999999999
0.6290200000000000 0.7580400000000002 0.9134649999999997
0.6437550000000001 0.7875100000000002 0.8977049999999999
0.7813699999999999 0.6716350000000000 0.9869899999999998
0.6726300000000001 0.7827950000000001 0.9345999999999998
0.9583799999999999 0.9791900000000000 0.8593399999999999
0.9297699999999999 0.9648849999999999 0.8430599999999999
0.7419600000000000 0.8709800000000000 0.9134649999999997
0.7124900000000000 0.8562450000000000 0.8977049999999999
0.8283649999999999 0.6097350000000000 0.9869899999999998
0.7172050000000000 0.8898350000000000 0.9345999999999998
0.7813699999999999 0.6097350000000000 0.9869899999999998
0.6726300000000001 0.8898350000000000 0.9345999999999998
0.8902649999999999 0.6716350000000000 0.9869899999999998
0.6101650000000000 0.7827950000000001 0.9345999999999998
0.8283650000000000 0.7186300000000000 0.9869899999999998
0.7172050000000000 0.8273700000000000 0.9345999999999998
0.6097349999999999 0.7813700000000000 0.5130099999999999
0.8898349999999998 0.6726300000000001 0.5653999999999999
0.7186299999999999 0.8283650000000000 0.5130099999999999
0.8273699999999999 0.7172050000000001 0.5653999999999999
0.6716350000000000 0.8902650000000000 0.5130099999999999
0.7827950000000000 0.6101650000000001 0.5653999999999999
0.6666683333333332 0.8333316666666666 0.7481816666666664
0.8125233333333332 0.6874766666666666 0.8073266666666664
0.7982183333333333 0.7017816666666666 0.8236066666666664
0.7043133333333332 0.7956866666666665 0.7532016666666665
0.6895783333333332 0.8104216666666665 0.7689616666666664
0.5519633333333333 0.5569316666666665 0.6796766666666666
0.6607033333333332 0.7768316666666666 0.7320666666666665
0.8125233333333333 0.6250466666666666 0.8073266666666664
0.7982183333333333 0.5964366666666666 0.8236066666666664
0.7043133333333332 0.9086266666666665 0.7532016666666665
0.6895783333333332 0.8791566666666666 0.7689616666666664
0.9430683333333333 0.9950316666666665 0.6796766666666666
0.7231683333333332 0.8838716666666666 0.7320666666666665
0.8749533333333331 0.6874766666666666 0.8073266666666664
0.9035633333333332 0.7017816666666666 0.8236066666666664
0.5913733333333332 0.7956866666666665 0.7532016666666665
0.6208433333333332 0.8104216666666667 0.7689616666666664
0.5049683333333331 0.9480366666666665 0.6796766666666666
0.6161283333333333 0.8392966666666666 0.7320666666666665
0.6666683333333332 0.8333316666666666 0.6688966666666666
0.8541433333333331 0.6458566666666666 0.5260066666666665
0.8684483333333333 0.6315516666666666 0.5097266666666666
0.9623533333333333 0.5376466666666666 0.5801316666666666
0.9770883333333332 0.5229116666666667 0.5643716666666667
0.7235983333333332 0.8852966666666666 0.6536566666666666
0.9434983333333332 0.9940366666666667 0.6012666666666665
0.8541433333333331 0.7082866666666666 0.5260066666666665
0.8684483333333332 0.7368966666666666 0.5097266666666666
0.9623533333333333 0.9247066666666667 0.5801316666666666
0.9770883333333331 0.9541766666666667 0.5643716666666667
0.6147033333333333 0.8383016666666665 0.6536566666666666
0.5059633333333332 0.9494616666666665 0.6012666666666665
0.7917133333333332 0.6458566666666666 0.5260066666666665
0.7631033333333331 0.6315516666666666 0.5097266666666666
0.5752933333333333 0.5376466666666666 0.5801316666666666
0.5458233333333333 0.5229116666666667 0.5643716666666667
0.6616983333333332 0.7764016666666667 0.6536566666666666
0.5505383333333332 0.5565016666666666 0.6012666666666665
0.6147033333333333 0.7764016666666667 0.6536566666666666
0.5059633333333332 0.5565016666666666 0.6012666666666665
0.7235983333333332 0.8383016666666665 0.6536566666666666
0.9434983333333331 0.9494616666666665 0.6012666666666665
0.6616983333333332 0.8852966666666666 0.6536566666666666
0.5505383333333334 0.9940366666666667 0.6012666666666665
0.9430683333333332 0.9480366666666665 0.6796766666666666
0.7231683333333332 0.8392966666666666 0.7320666666666665
0.5519633333333334 0.9950316666666665 0.6796766666666666
0.6607033333333332 0.8838716666666666 0.7320666666666665
0.5049683333333331 0.5569316666666665 0.6796766666666666
0.6161283333333333 0.7768316666666666 0.7320666666666665
0.8333316666666666 0.6666683333333333 0.8311033333333332
0.6458566666666666 0.8541433333333333 0.9739933333333330
0.6315516666666666 0.8684483333333334 0.9902733333333332
0.5376466666666666 0.9623533333333334 0.9198683333333331
0.5229116666666668 0.9770883333333333 0.9356283333333332
0.8852966666666666 0.7235983333333333 0.8463433333333332
0.9940366666666667 0.9434983333333334 0.8987333333333332
0.6458566666666666 0.7917133333333333 0.9739933333333330
0.6315516666666666 0.7631033333333334 0.9902733333333332
0.5376466666666666 0.5752933333333333 0.9198683333333331
0.5229116666666667 0.5458233333333333 0.9356283333333332
0.7764016666666665 0.6616983333333333 0.8463433333333332
0.5565016666666667 0.5505383333333334 0.8987333333333332
0.7082866666666666 0.8541433333333333 0.9739933333333330
0.7368966666666666 0.8684483333333334 0.9902733333333332
0.9247066666666667 0.9623533333333334 0.9198683333333331
0.9541766666666667 0.9770883333333333 0.9356283333333332
0.8383016666666665 0.6147033333333334 0.8463433333333332
0.9494616666666665 0.5059633333333333 0.8987333333333332
0.8333316666666666 0.6666683333333333 0.7518183333333331
0.6874766666666665 0.8125233333333330 0.6926733333333331
0.7017816666666665 0.7982183333333331 0.6763933333333332
0.7956866666666665 0.7043133333333333 0.7467983333333332
0.8104216666666665 0.6895783333333332 0.7310383333333332
0.5569316666666665 0.5519633333333334 0.8203233333333332
0.7768316666666666 0.6607033333333333 0.7679333333333332
0.6874766666666665 0.8749533333333332 0.6926733333333331
0.7017816666666665 0.9035633333333332 0.6763933333333332
0.7956866666666664 0.5913733333333333 0.7467983333333332
0.8104216666666666 0.6208433333333333 0.7310383333333332
0.9480366666666665 0.5049683333333332 0.8203233333333332
0.8392966666666667 0.6161283333333334 0.7679333333333332
0.6250466666666665 0.8125233333333330 0.6926733333333331
0.5964366666666665 0.7982183333333331 0.6763933333333332
0.9086266666666666 0.7043133333333333 0.7467983333333332
0.8791566666666665 0.6895783333333332 0.7310383333333332
0.9950316666666665 0.9430683333333334 0.8203233333333332
0.8838716666666665 0.7231683333333333 0.7679333333333332
0.9480366666666665 0.9430683333333334 0.8203233333333332
0.8392966666666666 0.7231683333333333 0.7679333333333332
0.5569316666666666 0.5049683333333332 0.8203233333333332
0.7768316666666666 0.6161283333333334 0.7679333333333332
0.9950316666666665 0.5519633333333334 0.8203233333333332
0.8838716666666665 0.6607033333333333 0.7679333333333332
0.7764016666666665 0.6147033333333334 0.8463433333333332
0.5565016666666667 0.5059633333333333 0.8987333333333332
0.8852966666666665 0.6616983333333333 0.8463433333333332
0.9940366666666667 0.5505383333333334 0.8987333333333332
0.8383016666666666 0.7235983333333333 0.8463433333333332
0.9494616666666665 0.9434983333333334 0.8987333333333332
0.4530449999999999 0.0469550000000000 0.1263700000000000
0.4522349999999999 0.0477650000000000 0.1381650000000000
0.4377599999999999 0.0622400000000000 0.1435600000000000
0.4092099999999999 0.0907900000000000 0.1424800000000000
0.3965849999999999 0.1034200000000000 0.1360450000000000
0.3830049999999999 0.1169950000000000 0.1168300000000000
0.3829949999999999 0.1170050000000000 0.1043650000000000
0.3978199999999999 0.1021800000000000 0.0992700000000000
0.4273849999999999 0.0726150000000000 0.1000000000000000
0.4400949999999998 0.0599050000000000 0.1065350000000000
0.4395849999999998 0.0604150000000000 0.1194450000000000
0.4249649999999999 0.0750350000000000 0.1251100000000000
0.4248499999999999 0.0751500000000000 0.1368550000000000
0.3965449999999999 0.1034550000000000 0.1236200000000000
0.4107649999999999 0.0892350000000000 0.1178300000000000
0.4115649999999999 0.0884350000000000 0.1058900000000000
0.4663249999999999 0.0336750000000000 0.1458000000000000
0.3688799999999999 0.1311200000000000 0.0971800000000000
0.2142900000000000 0.4285800000000000 0.0231500000000000
0.2415450000000000 0.4830900000000000 0.0355700000000000
0.2571049999999999 0.0142100000000000 0.0424150000000000
0.2840449999999999 0.0680900000000000 0.0551600000000000
0.1989600000000000 0.3979200000000000 0.0161550000000000
0.2991600000000000 0.0983200000000000 0.0621750000000000
0.2454650000000000 0.4423949999999999 0.0260600000000000
0.2597050000000000 0.4699349999999999 0.0322700000000000
0.2883649999999999 0.0272300000000000 0.0453600000000000
0.3013950000000000 0.0545250000000000 0.0515850000000000
0.2918100000000000 0.4847199999999999 0.0357400000000000
0.3059200000000000 0.0130850000000000 0.0412750000000000
0.4530449999999999 0.4060899999999998 0.1263700000000000
0.4522349999999999 0.4044699999999999 0.1381650000000000
0.4377599999999999 0.3755199999999999 0.1435600000000000
0.4092100000000000 0.3184200000000000 0.1424800000000000
0.3965799999999999 0.2931650000000000 0.1360450000000000
0.3830049999999999 0.2660099999999999 0.1168300000000000
0.3829949999999999 0.2659899999999999 0.1043650000000000
0.3978199999999999 0.2956400000000000 0.0992700000000000
0.4273849999999999 0.3547700000000000 0.1000000000000000
0.4400949999999999 0.3801900000000000 0.1065350000000000
0.4395849999999999 0.3791700000000000 0.1194450000000000
0.4249649999999999 0.3499300000000000 0.1251100000000000
0.4248500000000000 0.3497000000000000 0.1368550000000000
0.3965449999999999 0.2930899999999999 0.1236200000000000
0.4107649999999999 0.3215300000000000 0.1178300000000000
0.4115649999999999 0.3231300000000000 0.1058900000000000
0.4663249999999999 0.4326499999999999 0.1458000000000000
0.3688800000000000 0.2377600000000000 0.0971800000000000
0.0714200000000000 0.2857100000000000 0.0231500000000000
0.0169100000000000 0.2584550000000000 0.0355700000000000
0.4857899999999999 0.2428949999999999 0.0424150000000000
0.4319100000000000 0.2159550000000000 0.0551600000000000
0.1020800000000000 0.3010400000000000 0.0161550000000000
0.4016799999999999 0.2008399999999999 0.0621750000000000
0.0576050000000000 0.3030700000000000 0.0260600000000000
0.0300650000000000 0.2897700000000000 0.0322700000000000
0.4727699999999999 0.2611350000000000 0.0453600000000000
0.4454750000000000 0.2468700000000000 0.0515850000000000
0.0152800000000000 0.3070900000000000 0.0357400000000000
0.4869149999999999 0.2928350000000000 0.0412750000000000
0.0939100000000000 0.0469550000000000 0.1263700000000000
0.0955300000000000 0.0477650000000000 0.1381650000000000
0.1244800000000000 0.0622400000000000 0.1435600000000000
0.1815799999999999 0.0907900000000000 0.1424800000000000
0.2068350000000000 0.1034150000000000 0.1360450000000000
0.2339900000000000 0.1169950000000000 0.1168300000000000
0.2340100000000000 0.1170050000000000 0.1043650000000000
0.2043600000000000 0.1021800000000000 0.0992700000000000
0.1452300000000000 0.0726150000000000 0.1000000000000000
0.1198100000000000 0.0599050000000000 0.1065350000000000
0.1208300000000000 0.0604150000000000 0.1194450000000000
0.1500700000000000 0.0750350000000000 0.1251100000000000
0.1503000000000000 0.0751500000000000 0.1368550000000000
0.2069100000000000 0.1034550000000000 0.1236200000000000
0.1784700000000000 0.0892350000000000 0.1178300000000000
0.1768699999999999 0.0884350000000000 0.1058900000000000
0.0673500000000000 0.0336750000000000 0.1458000000000000
0.2622400000000000 0.1311200000000000 0.0971800000000000
0.2142900000000000 0.2857100000000000 0.0231500000000000
0.2415450000000000 0.2584550000000000 0.0355700000000000
0.2571050000000000 0.2428950000000000 0.0424150000000000
0.2840449999999999 0.2159550000000000 0.0551600000000000
0.1989600000000000 0.3010400000000000 0.0161550000000000
0.2991600000000000 0.2008400000000000 0.0621750000000000
0.1969300000000000 0.2545350000000000 0.0260600000000000
0.2102300000000000 0.2402950000000000 0.0322700000000000
0.2388650000000000 0.2116350000000000 0.0453600000000000
0.2531299999999999 0.1986049999999999 0.0515850000000000
0.1929099999999999 0.2081900000000000 0.0357400000000000
0.2071650000000000 0.1940799999999999 0.0412750000000000
0.0469550000000000 0.4530449999999999 0.3736299999999999
0.0477650000000000 0.4522349999999999 0.3618350000000000
0.0622400000000000 0.4377599999999999 0.3564399999999999
0.0907900000000000 0.4092100000000000 0.3575199999999999
0.1034200000000000 0.3965850000000000 0.3639549999999999
0.1169950000000000 0.3830049999999999 0.3831700000000000
0.1170049999999999 0.3829949999999999 0.3956349999999999
0.1021800000000000 0.3978200000000000 0.4007300000000000
0.0726150000000000 0.4273850000000000 0.3999999999999999
0.0599050000000000 0.4400950000000000 0.3934649999999999
0.0604150000000000 0.4395849999999999 0.3805549999999999
0.0750350000000000 0.4249649999999999 0.3748899999999999
0.0751500000000000 0.4248499999999999 0.3631449999999999
0.1034550000000000 0.3965450000000000 0.3763799999999999
0.0892350000000000 0.4107649999999999 0.3821700000000000
0.0884350000000000 0.4115650000000000 0.3941100000000000
0.0336750000000000 0.4663249999999999 0.3541999999999998
0.1311200000000000 0.3688800000000000 0.4028200000000000
0.4285800000000000 0.2142900000000000 0.4768499999999999
0.4830900000000000 0.2415450000000000 0.4644300000000000
0.0142100000000000 0.2571050000000000 0.4575850000000000
0.0680900000000000 0.2840450000000000 0.4448400000000000
0.3979200000000000 0.1989600000000000 0.4838449999999999
0.0983200000000000 0.2991600000000000 0.4378249999999999
0.4423949999999999 0.2454650000000000 0.4739399999999999
0.4699349999999999 0.2597050000000000 0.4677299999999999
0.0272300000000000 0.2883650000000000 0.4546399999999999
0.0545250000000000 0.3013950000000000 0.4484150000000000
0.4847199999999999 0.2918100000000000 0.4642600000000000
0.0130850000000000 0.3059200000000000 0.4587249999999999
0.0469550000000000 0.0939100000000000 0.3736299999999999
0.0477650000000000 0.0955300000000000 0.3618350000000000
0.0622400000000000 0.1244800000000000 0.3564399999999999
0.0907900000000000 0.1815800000000000 0.3575199999999999
0.1034150000000000 0.2068349999999999 0.3639549999999999
0.1169950000000000 0.2339900000000001 0.3831700000000000
0.1170050000000000 0.2340100000000000 0.3956349999999999
0.1021800000000000 0.2043600000000000 0.4007300000000000
0.0726150000000000 0.1452299999999999 0.3999999999999999
0.0599050000000000 0.1198100000000000 0.3934649999999999
0.0604150000000000 0.1208300000000000 0.3805549999999999
0.0750350000000000 0.1500700000000000 0.3748899999999999
0.0751500000000000 0.1503000000000000 0.3631449999999999
0.1034550000000000 0.2069100000000000 0.3763799999999999
0.0892350000000000 0.1784700000000000 0.3821700000000000
0.0884350000000000 0.1768699999999999 0.3941100000000000
0.0336750000000000 0.0673500000000000 0.3541999999999998
0.1311200000000000 0.2622400000000000 0.4028200000000000
0.2857100000000000 0.2142900000000000 0.4768499999999999
0.2584550000000000 0.2415450000000000 0.4644300000000000
0.2428950000000000 0.2571050000000000 0.4575850000000000
0.2159550000000000 0.2840450000000000 0.4448400000000000
0.3010400000000000 0.1989600000000000 0.4838449999999999
0.2008400000000000 0.2991600000000000 0.4378249999999999
0.2545350000000000 0.1969300000000000 0.4739399999999999
0.2402949999999999 0.2102299999999999 0.4677299999999999
0.2116350000000000 0.2388650000000000 0.4546399999999999
0.1986049999999999 0.2531300000000000 0.4484150000000000
0.2081900000000000 0.1929100000000000 0.4642600000000000
0.1940799999999999 0.2071649999999999 0.4587249999999999
0.4060899999999999 0.4530450000000000 0.3736299999999999
0.4044699999999999 0.4522349999999999 0.3618350000000000
0.3755199999999999 0.4377599999999999 0.3564399999999999
0.3184200000000000 0.4092100000000000 0.3575199999999999
0.2931650000000000 0.3965799999999999 0.3639549999999999
0.2660099999999999 0.3830049999999999 0.3831700000000000
0.2659899999999998 0.3829949999999999 0.3956349999999999
0.2956400000000000 0.3978200000000000 0.4007300000000000
0.3547700000000000 0.4273850000000000 0.3999999999999999
0.3801900000000000 0.4400950000000000 0.3934649999999999
0.3791700000000000 0.4395849999999999 0.3805549999999999
0.3499299999999999 0.4249649999999999 0.3748899999999999
0.3497000000000000 0.4248499999999999 0.3631449999999999
0.2930900000000000 0.3965450000000000 0.3763799999999999
0.3215299999999999 0.4107649999999999 0.3821700000000000
0.3231300000000000 0.4115650000000000 0.3941100000000000
0.4326499999999999 0.4663249999999999 0.3541999999999998
0.2377600000000000 0.3688800000000000 0.4028200000000000
0.2857100000000000 0.0714200000000000 0.4768499999999999
0.2584550000000000 0.0169100000000000 0.4644300000000000
0.2428950000000000 0.4857900000000001 0.4575850000000000
0.2159550000000000 0.4319100000000001 0.4448400000000000
0.3010400000000000 0.1020800000000000 0.4838449999999999
0.2008399999999999 0.4016799999999999 0.4378249999999999
0.3030700000000000 0.0576050000000000 0.4739399999999999
0.2897700000000000 0.0300650000000000 0.4677299999999999
0.2611350000000000 0.4727700000000001 0.4546399999999999
0.2468700000000000 0.4454750000000000 0.4484150000000000
0.3070900000000000 0.0152800000000000 0.4642600000000000
0.2928350000000000 0.4869150000000000 0.4587249999999999
0.2545350000000000 0.0576050000000000 0.4739399999999999
0.2402949999999999 0.0300650000000000 0.4677299999999999
0.2116350000000000 0.4727700000000001 0.4546399999999999
0.1986050000000000 0.4454750000000000 0.4484150000000000
0.2081900000000000 0.0152800000000000 0.4642600000000000
0.1940799999999999 0.4869150000000000 0.4587249999999999
0.4423949999999999 0.1969300000000000 0.4739399999999999
0.4699349999999999 0.2102299999999999 0.4677299999999999
0.0272300000000000 0.2388650000000000 0.4546399999999999
0.0545250000000000 0.2531300000000000 0.4484150000000000
0.4847199999999999 0.1929100000000000 0.4642600000000000
0.0130850000000000 0.2071649999999999 0.4587249999999999
0.3030700000000000 0.2454650000000000 0.4739399999999999
0.2897700000000000 0.2597050000000000 0.4677299999999999
0.2611350000000000 0.2883650000000000 0.4546399999999999
0.2468700000000000 0.3013950000000000 0.4484150000000000
0.3070900000000000 0.2918100000000000 0.4642600000000000
0.2928350000000000 0.3059200000000000 0.4587249999999999
0.0576050000000000 0.2545350000000000 0.0260600000000000
0.0300650000000000 0.2402950000000000 0.0322700000000000
0.4727700000000000 0.2116350000000000 0.0453600000000000
0.4454750000000000 0.1986049999999999 0.0515850000000000
0.0152800000000000 0.2081900000000000 0.0357400000000000
0.4869149999999999 0.1940799999999999 0.0412750000000000
0.2454650000000000 0.3030700000000000 0.0260600000000000
0.2597050000000000 0.2897700000000000 0.0322700000000000
0.2883649999999999 0.2611350000000000 0.0453600000000000
0.3013950000000000 0.2468700000000000 0.0515850000000000
0.2918100000000000 0.3070900000000000 0.0357400000000000
0.3059200000000000 0.2928350000000000 0.0412750000000000
0.1969300000000000 0.4423949999999999 0.0260600000000000
0.2102299999999999 0.4699349999999999 0.0322700000000000
0.2388650000000000 0.0272300000000000 0.0453600000000000
0.2531299999999999 0.0545250000000000 0.0515850000000000
0.1929099999999999 0.4847199999999999 0.0357400000000000
0.2071650000000000 0.0130850000000000 0.0412750000000000
0.2863783333333333 0.2136216666666667 0.2930366666666667
0.2855683333333332 0.2144316666666667 0.3048316666666666
0.2710933333333332 0.2289066666666666 0.3102266666666666
0.2425433333333333 0.2574566666666666 0.3091466666666666
0.2299183333333333 0.2700866666666666 0.3027116666666666
0.2163383333333333 0.2836616666666667 0.2834966666666666
0.2163283333333332 0.2836716666666667 0.2710316666666666
0.2311533333333333 0.2688466666666667 0.2659366666666666
0.2607183333333334 0.2392816666666667 0.2666666666666666
0.2734283333333334 0.2265716666666667 0.2732016666666666
0.2729183333333334 0.2270816666666667 0.2861116666666666
0.2582983333333333 0.2417016666666666 0.2917766666666666
0.2581833333333333 0.2418166666666667 0.3035216666666666
0.2298783333333333 0.2701216666666666 0.2902866666666666
0.2440983333333333 0.2559016666666666 0.2844966666666666
0.2448983333333333 0.2551016666666667 0.2725566666666666
0.2996583333333333 0.2003416666666666 0.3124666666666666
0.2022133333333333 0.2977866666666666 0.2638466666666666
0.0476233333333334 0.0952466666666667 0.1898166666666666
0.0748783333333334 0.1497566666666666 0.2022366666666666
0.0904383333333333 0.1808766666666667 0.2090816666666666
0.1173783333333334 0.2347566666666667 0.2218266666666666
0.0322933333333333 0.0645866666666667 0.1828216666666666
0.1324933333333334 0.2649866666666666 0.2288416666666666
0.0787983333333333 0.1090616666666666 0.1927266666666666
0.0930383333333333 0.1366016666666666 0.1989366666666666
0.1216983333333332 0.1938966666666666 0.2120266666666666
0.1347283333333333 0.2211916666666666 0.2182516666666666
0.1251433333333334 0.1513866666666667 0.2024066666666666
0.1392533333333333 0.1797516666666666 0.2079416666666666
0.2863783333333332 0.0727566666666666 0.2930366666666667
0.2855683333333332 0.0711366666666666 0.3048316666666666
0.2710933333333332 0.0421866666666666 0.3102266666666666
0.2425433333333333 0.4850866666666666 0.3091466666666666
0.2299133333333333 0.4598316666666666 0.3027116666666666
0.2163383333333333 0.4326766666666666 0.2834966666666666
0.2163283333333333 0.4326566666666666 0.2710316666666666
0.2311533333333333 0.4623066666666666 0.2659366666666666
0.2607183333333333 0.0214366666666667 0.2666666666666666
0.2734283333333333 0.0468566666666667 0.2732016666666666
0.2729183333333333 0.0458366666666666 0.2861116666666666
0.2582983333333333 0.0165966666666666 0.2917766666666666
0.2581833333333333 0.0163666666666666 0.3035216666666666
0.2298783333333333 0.4597566666666666 0.2902866666666666
0.2440983333333333 0.4881966666666667 0.2844966666666666
0.2448983333333333 0.4897966666666667 0.2725566666666666
0.2996583333333332 0.0993166666666666 0.3124666666666666
0.2022133333333333 0.4044266666666667 0.2638466666666666
0.4047533333333332 0.4523766666666666 0.1898166666666666
0.3502433333333332 0.4251216666666666 0.2022366666666666
0.3191233333333333 0.4095616666666666 0.2090816666666666
0.2652433333333333 0.3826216666666666 0.2218266666666666
0.4354133333333333 0.4677066666666666 0.1828216666666666
0.2350133333333333 0.3675066666666666 0.2288416666666666
0.3909383333333333 0.4697366666666667 0.1927266666666666
0.3633983333333333 0.4564366666666667 0.1989366666666666
0.3061033333333333 0.4278016666666666 0.2120266666666666
0.2788083333333333 0.4135366666666667 0.2182516666666666
0.3486133333333333 0.4737566666666667 0.2024066666666666
0.3202483333333332 0.4595016666666667 0.2079416666666666
0.4272433333333333 0.2136216666666667 0.2930366666666667
0.4288633333333333 0.2144316666666667 0.3048316666666666
0.4578133333333333 0.2289066666666667 0.3102266666666666
0.0149133333333333 0.2574566666666666 0.3091466666666666
0.0401683333333333 0.2700816666666667 0.3027116666666666
0.0673233333333334 0.2836616666666667 0.2834966666666666
0.0673433333333334 0.2836716666666667 0.2710316666666666
0.0376933333333333 0.2688466666666667 0.2659366666666666
0.4785633333333333 0.2392816666666666 0.2666666666666666
0.4531433333333333 0.2265716666666666 0.2732016666666666
0.4541633333333333 0.2270816666666666 0.2861116666666666
0.4834033333333334 0.2417016666666667 0.2917766666666666
0.4836333333333332 0.2418166666666667 0.3035216666666666
0.0402433333333334 0.2701216666666667 0.2902866666666666
0.0118033333333333 0.2559016666666667 0.2844966666666666
0.0102033333333333 0.2551016666666667 0.2725566666666666
0.4006833333333332 0.2003416666666666 0.3124666666666666
0.0955733333333333 0.2977866666666666 0.2638466666666666
0.0476233333333334 0.4523766666666666 0.1898166666666666
0.0748783333333334 0.4251216666666666 0.2022366666666666
0.0904383333333334 0.4095616666666667 0.2090816666666666
0.1173783333333333 0.3826216666666666 0.2218266666666666
0.0322933333333333 0.4677066666666666 0.1828216666666666
0.1324933333333334 0.3675066666666666 0.2288416666666666
0.0302633333333333 0.4212016666666668 0.1927266666666666
0.0435633333333333 0.4069616666666667 0.1989366666666666
0.0721983333333334 0.3783016666666666 0.2120266666666666
0.0864633333333333 0.3652716666666666 0.2182516666666666
0.0262433333333333 0.3748566666666666 0.2024066666666666
0.0404983333333333 0.3607466666666667 0.2079416666666666
0.3802883333333333 0.1197116666666667 0.0402966666666666
0.3810983333333333 0.1189016666666667 0.0285016666666666
0.3955733333333332 0.1044266666666667 0.0231066666666667
0.4241233333333332 0.0758766666666667 0.0241866666666667
0.4367533333333332 0.0632516666666667 0.0306216666666667
0.4503283333333333 0.0496716666666667 0.0498366666666666
0.4503383333333332 0.0496616666666666 0.0623016666666667
0.4355133333333333 0.0644866666666667 0.0673966666666666
0.4059483333333332 0.0940516666666666 0.0666666666666666
0.3932383333333332 0.1067616666666666 0.0601316666666666
0.3937483333333333 0.1062516666666666 0.0472216666666667
0.4083683333333332 0.0916316666666667 0.0415566666666667
0.4084833333333332 0.0915166666666667 0.0298116666666666
0.4367883333333333 0.0632116666666667 0.0430466666666667
0.4225683333333333 0.0774316666666667 0.0488366666666666
0.4217683333333332 0.0782316666666667 0.0607766666666667
0.3670083333333333 0.1329916666666666 0.0208666666666666
0.4644533333333332 0.0355466666666666 0.0694866666666666
0.2619133333333333 0.3809566666666666 0.1435166666666666
0.3164233333333332 0.4082116666666665 0.1310966666666666
0.3475433333333333 0.4237716666666666 0.1242516666666666
0.4014233333333332 0.4507116666666665 0.1115066666666666
0.2312533333333333 0.3656266666666666 0.1505116666666667
0.4316533333333332 0.4658266666666666 0.1044916666666666
0.2757283333333333 0.4121316666666666 0.1406066666666666
0.3032683333333332 0.4263716666666666 0.1343966666666666
0.3605633333333332 0.4550316666666666 0.1213066666666666
0.3878583333333332 0.4680616666666667 0.1150816666666667
0.3180533333333332 0.4584766666666665 0.1309266666666666
0.3464183333333333 0.4725866666666667 0.1253916666666666
0.3802883333333333 0.2605766666666666 0.0402966666666666
0.3810983333333333 0.2621966666666666 0.0285016666666666
0.3955733333333333 0.2911466666666667 0.0231066666666667
0.4241233333333332 0.3482466666666666 0.0241866666666667
0.4367483333333332 0.3735016666666666 0.0306216666666667
0.4503283333333333 0.4006566666666667 0.0498366666666666
0.4503383333333333 0.4006766666666667 0.0623016666666667
0.4355133333333333 0.3710266666666666 0.0673966666666666
0.4059483333333332 0.3118966666666665 0.0666666666666666
0.3932383333333332 0.2864766666666666 0.0601316666666666
0.3937483333333333 0.2874966666666666 0.0472216666666667
0.4083683333333333 0.3167366666666667 0.0415566666666667
0.4084833333333333 0.3169666666666666 0.0298116666666666
0.4367883333333333 0.3735766666666667 0.0430466666666667
0.4225683333333333 0.3451366666666666 0.0488366666666666
0.4217683333333332 0.3435366666666666 0.0607766666666667
0.3670083333333333 0.2340166666666667 0.0208666666666666
0.4644533333333333 0.4289066666666666 0.0694866666666666
0.1190433333333333 0.3809566666666666 0.1435166666666666
0.0917883333333333 0.4082116666666665 0.1310966666666666
0.0762283333333334 0.4237716666666666 0.1242516666666666
0.0492883333333333 0.4507116666666665 0.1115066666666666
0.1343733333333333 0.3656266666666666 0.1505116666666667
0.0341733333333333 0.4658266666666666 0.1044916666666666
0.0878683333333333 0.3635966666666666 0.1406066666666666
0.0736283333333333 0.3768966666666666 0.1343966666666666
0.0449683333333333 0.4055316666666665 0.1213066666666666
0.0319383333333333 0.4197966666666665 0.1150816666666667
0.0415233333333333 0.3595766666666667 0.1309266666666666
0.0274133333333333 0.3738316666666666 0.1253916666666666
0.2394233333333333 0.1197116666666667 0.0402966666666666
0.2378033333333333 0.1189016666666666 0.0285016666666666
0.2088533333333333 0.1044266666666667 0.0231066666666667
0.1517533333333334 0.0758766666666667 0.0241866666666667
0.1264983333333334 0.0632466666666667 0.0306216666666667
0.0993433333333333 0.0496716666666666 0.0498366666666666
0.0993233333333332 0.0496616666666667 0.0623016666666667
0.1289733333333334 0.0644866666666667 0.0673966666666666
0.1881033333333333 0.0940516666666667 0.0666666666666666
0.2135233333333332 0.1067616666666666 0.0601316666666666
0.2125033333333332 0.1062516666666667 0.0472216666666667
0.1832633333333333 0.0916316666666666 0.0415566666666667
0.1830333333333334 0.0915166666666667 0.0298116666666666
0.1264233333333333 0.0632116666666666 0.0430466666666667
0.1548633333333333 0.0774316666666666 0.0488366666666666
0.1564633333333333 0.0782316666666667 0.0607766666666667
0.2659833333333332 0.1329916666666666 0.0208666666666666
0.0710933333333333 0.0355466666666667 0.0694866666666666
0.1190433333333333 0.2380866666666667 0.1435166666666666
0.0917883333333333 0.1835766666666666 0.1310966666666666
0.0762283333333333 0.1524566666666667 0.1242516666666666
0.0492883333333334 0.0985766666666667 0.1115066666666666
0.1343733333333333 0.2687466666666667 0.1505116666666667
0.0341733333333333 0.0683466666666667 0.1044916666666666
0.1364033333333333 0.2242716666666666 0.1406066666666666
0.1231033333333333 0.1967316666666666 0.1343966666666666
0.0944683333333334 0.1394366666666667 0.1213066666666666
0.0802033333333334 0.1121416666666667 0.1150816666666667
0.1404233333333333 0.1819466666666667 0.1309266666666666
0.1261683333333333 0.1535816666666667 0.1253916666666666
0.0878683333333333 0.2242716666666666 0.1406066666666666
0.0736283333333333 0.1967316666666666 0.1343966666666666
0.0449683333333333 0.1394366666666667 0.1213066666666666
0.0319383333333333 0.1121416666666667 0.1150816666666667
0.0415233333333333 0.1819466666666667 0.1309266666666666
0.0274133333333333 0.1535816666666667 0.1253916666666666
0.2757283333333333 0.3635966666666666 0.1406066666666666
0.3032683333333332 0.3768966666666666 0.1343966666666666
0.3605633333333332 0.4055316666666665 0.1213066666666666
0.3878583333333332 0.4197966666666665 0.1150816666666667
0.3180533333333332 0.3595766666666667 0.1309266666666666
0.3464183333333333 0.3738316666666666 0.1253916666666666
0.1364033333333333 0.4121316666666666 0.1406066666666666
0.1231033333333333 0.4263716666666666 0.1343966666666666
0.0944683333333334 0.4550316666666666 0.1213066666666666
0.0802033333333334 0.4680616666666667 0.1150816666666667
0.1404233333333333 0.4584766666666665 0.1309266666666666
0.1261683333333333 0.4725866666666667 0.1253916666666666
0.3909383333333333 0.4212016666666668 0.1927266666666666
0.3633983333333333 0.4069616666666667 0.1989366666666666
0.3061033333333333 0.3783016666666666 0.2120266666666666
0.2788083333333333 0.3652716666666666 0.2182516666666666
0.3486133333333333 0.3748566666666666 0.2024066666666666
0.3202483333333333 0.3607466666666667 0.2079416666666666
0.0787983333333333 0.4697366666666667 0.1927266666666666
0.0930383333333333 0.4564366666666667 0.1989366666666666
0.1216983333333333 0.4278016666666666 0.2120266666666666
0.1347283333333333 0.4135366666666667 0.2182516666666666
0.1251433333333334 0.4737566666666667 0.2024066666666666
0.1392533333333333 0.4595016666666667 0.2079416666666666
0.0302633333333333 0.1090616666666666 0.1927266666666666
0.0435633333333333 0.1366016666666666 0.1989366666666666
0.0721983333333333 0.1938966666666666 0.2120266666666666
0.0864633333333333 0.2211916666666666 0.2182516666666666
0.0262433333333333 0.1513866666666667 0.2024066666666666
0.0404983333333333 0.1797516666666666 0.2079416666666666
0.1197116666666667 0.3802883333333333 0.4597033333333333
0.1189016666666667 0.3810983333333334 0.4714983333333333
0.1044266666666667 0.3955733333333334 0.4768933333333332
0.0758766666666668 0.4241233333333334 0.4758133333333332
0.0632516666666667 0.4367533333333333 0.4693783333333333
0.0496716666666667 0.4503283333333333 0.4501633333333332
0.0496616666666666 0.4503383333333332 0.4376983333333332
0.0644866666666667 0.4355133333333333 0.4326033333333333
0.0940516666666666 0.4059483333333332 0.4333333333333333
0.1067616666666666 0.3932383333333332 0.4398683333333333
0.1062516666666667 0.3937483333333334 0.4527783333333332
0.0916316666666667 0.4083683333333334 0.4584433333333333
0.0915166666666667 0.4084833333333333 0.4701883333333332
0.0632116666666667 0.4367883333333334 0.4569533333333333
0.0774316666666667 0.4225683333333334 0.4511633333333332
0.0782316666666667 0.4217683333333333 0.4392233333333332
0.1329916666666666 0.3670083333333333 0.4791333333333332
0.0355466666666666 0.4644533333333333 0.4305133333333332
0.3809566666666666 0.2619133333333333 0.3564833333333333
0.4082116666666665 0.3164233333333333 0.3689033333333332
0.4237716666666665 0.3475433333333333 0.3757483333333332
0.4507116666666666 0.4014233333333333 0.3884933333333332
0.3656266666666665 0.2312533333333333 0.3494883333333332
0.4658266666666665 0.4316533333333333 0.3955083333333332
0.4121316666666666 0.2757283333333333 0.3593933333333333
0.4263716666666666 0.3032683333333332 0.3656033333333333
0.4550316666666666 0.3605633333333333 0.3786933333333333
0.4680616666666667 0.3878583333333332 0.3849183333333333
0.4584766666666666 0.3180533333333333 0.3690733333333332
0.4725866666666667 0.3464183333333333 0.3746083333333333
0.1197116666666667 0.2394233333333333 0.4597033333333333
0.1189016666666666 0.2378033333333333 0.4714983333333333
0.1044266666666667 0.2088533333333333 0.4768933333333332
0.0758766666666666 0.1517533333333334 0.4758133333333332
0.0632466666666667 0.1264983333333334 0.4693783333333333
0.0496716666666667 0.0993433333333333 0.4501633333333332
0.0496616666666667 0.0993233333333332 0.4376983333333332
0.0644866666666667 0.1289733333333334 0.4326033333333333
0.0940516666666667 0.1881033333333333 0.4333333333333333
0.1067616666666666 0.2135233333333333 0.4398683333333333
0.1062516666666666 0.2125033333333332 0.4527783333333332
0.0916316666666666 0.1832633333333333 0.4584433333333333
0.0915166666666666 0.1830333333333334 0.4701883333333332
0.0632116666666667 0.1264233333333333 0.4569533333333333
0.0774316666666667 0.1548633333333333 0.4511633333333332
0.0782316666666666 0.1564633333333334 0.4392233333333332
0.1329916666666667 0.2659833333333332 0.4791333333333332
0.0355466666666667 0.0710933333333333 0.4305133333333332
0.2380866666666666 0.1190433333333333 0.3564833333333333
0.1835766666666666 0.0917883333333333 0.3689033333333332
0.1524566666666666 0.0762283333333333 0.3757483333333332
0.0985766666666666 0.0492883333333334 0.3884933333333332
0.2687466666666666 0.1343733333333333 0.3494883333333332
0.0683466666666666 0.0341733333333333 0.3955083333333332
0.2242716666666666 0.1364033333333333 0.3593933333333333
0.1967316666666666 0.1231033333333333 0.3656033333333333
0.1394366666666666 0.0944683333333334 0.3786933333333333
0.1121416666666666 0.0802033333333334 0.3849183333333333
0.1819466666666667 0.1404233333333333 0.3690733333333332
0.1535816666666666 0.1261683333333333 0.3746083333333333
0.2605766666666667 0.3802883333333333 0.4597033333333333
0.2621966666666667 0.3810983333333334 0.4714983333333333
0.2911466666666667 0.3955733333333334 0.4768933333333332
0.3482466666666666 0.4241233333333334 0.4758133333333332
0.3735016666666666 0.4367483333333333 0.4693783333333333
0.4006566666666666 0.4503283333333333 0.4501633333333332
0.4006766666666667 0.4503383333333333 0.4376983333333332
0.3710266666666665 0.4355133333333333 0.4326033333333333
0.3118966666666665 0.4059483333333332 0.4333333333333333
0.2864766666666665 0.3932383333333332 0.4398683333333333
0.2874966666666666 0.3937483333333334 0.4527783333333332
0.3167366666666667 0.4083683333333334 0.4584433333333333
0.3169666666666666 0.4084833333333333 0.4701883333333332
0.3735766666666667 0.4367883333333334 0.4569533333333333
0.3451366666666666 0.4225683333333334 0.4511633333333332
0.3435366666666665 0.4217683333333333 0.4392233333333332
0.2340166666666666 0.3670083333333333 0.4791333333333332
0.4289066666666666 0.4644533333333333 0.4305133333333332
0.3809566666666666 0.1190433333333333 0.3564833333333333
0.4082116666666666 0.0917883333333333 0.3689033333333332
0.4237716666666666 0.0762283333333333 0.3757483333333332
0.4507116666666665 0.0492883333333333 0.3884933333333332
0.3656266666666666 0.1343733333333333 0.3494883333333332
0.4658266666666666 0.0341733333333333 0.3955083333333332
0.3635966666666666 0.0878683333333333 0.3593933333333333
0.3768966666666667 0.0736283333333333 0.3656033333333333
0.4055316666666666 0.0449683333333333 0.3786933333333333
0.4197966666666665 0.0319383333333333 0.3849183333333333
0.3595766666666667 0.0415233333333333 0.3690733333333332
0.3738316666666666 0.0274133333333333 0.3746083333333333
0.2136216666666666 0.2863783333333332 0.2069633333333333
0.2144316666666666 0.2855683333333333 0.1951683333333333
0.2289066666666666 0.2710933333333333 0.1897733333333333
0.2574566666666666 0.2425433333333333 0.1908533333333333
0.2700866666666666 0.2299183333333333 0.1972883333333333
0.2836616666666666 0.2163383333333333 0.2165033333333333
0.2836716666666666 0.2163283333333332 0.2289683333333333
0.2688466666666667 0.2311533333333333 0.2340633333333333
0.2392816666666667 0.2607183333333334 0.2333333333333333
0.2265716666666667 0.2734283333333334 0.2267983333333333
0.2270816666666666 0.2729183333333333 0.2138883333333333
0.2417016666666666 0.2582983333333333 0.2082233333333333
0.2418166666666666 0.2581833333333333 0.1964783333333333
0.2701216666666666 0.2298783333333333 0.2097133333333333
0.2559016666666666 0.2440983333333333 0.2155033333333333
0.2551016666666667 0.2448983333333333 0.2274433333333333
0.2003416666666666 0.2996583333333333 0.1875333333333333
0.2977866666666666 0.2022133333333334 0.2361533333333333
0.0952466666666667 0.0476233333333333 0.3101833333333333
0.1497566666666666 0.0748783333333334 0.2977633333333333
0.1808766666666666 0.0904383333333333 0.2909183333333333
0.2347566666666666 0.1173783333333334 0.2781733333333333
0.0645866666666667 0.0322933333333333 0.3171783333333333
0.2649866666666666 0.1324933333333334 0.2711583333333333
0.1090616666666666 0.0787983333333333 0.3072733333333332
0.1366016666666666 0.0930383333333333 0.3010633333333332
0.1938966666666666 0.1216983333333332 0.2879733333333332
0.2211916666666666 0.1347283333333333 0.2817483333333333
0.1513866666666667 0.1251433333333334 0.2975933333333333
0.1797516666666666 0.1392533333333333 0.2920583333333333
0.2136216666666667 0.4272433333333334 0.2069633333333333
0.2144316666666667 0.4288633333333333 0.1951683333333333
0.2289066666666667 0.4578133333333334 0.1897733333333333
0.2574566666666666 0.0149133333333333 0.1908533333333333
0.2700816666666666 0.0401683333333333 0.1972883333333333
0.2836616666666666 0.0673233333333333 0.2165033333333333
0.2836716666666667 0.0673433333333334 0.2289683333333333
0.2688466666666666 0.0376933333333333 0.2340633333333333
0.2392816666666666 0.4785633333333333 0.2333333333333333
0.2265716666666666 0.4531433333333333 0.2267983333333333
0.2270816666666667 0.4541633333333334 0.2138883333333333
0.2417016666666667 0.4834033333333334 0.2082233333333333
0.2418166666666667 0.4836333333333333 0.1964783333333333
0.2701216666666666 0.0402433333333334 0.2097133333333333
0.2559016666666666 0.0118033333333333 0.2155033333333333
0.2551016666666667 0.0102033333333333 0.2274433333333333
0.2003416666666666 0.4006833333333333 0.1875333333333333
0.2977866666666666 0.0955733333333333 0.2361533333333333
0.4523766666666666 0.0476233333333333 0.3101833333333333
0.4251216666666666 0.0748783333333334 0.2977633333333333
0.4095616666666667 0.0904383333333333 0.2909183333333333
0.3826216666666666 0.1173783333333333 0.2781733333333333
0.4677066666666665 0.0322933333333333 0.3171783333333333
0.3675066666666666 0.1324933333333334 0.2711583333333333
0.4212016666666666 0.0302633333333333 0.3072733333333332
0.4069616666666666 0.0435633333333333 0.3010633333333332
0.3783016666666666 0.0721983333333333 0.2879733333333332
0.3652716666666666 0.0864633333333333 0.2817483333333333
0.3748566666666666 0.0262433333333333 0.2975933333333333
0.3607466666666667 0.0404983333333333 0.2920583333333333
0.0727566666666666 0.2863783333333332 0.2069633333333333
0.0711366666666666 0.2855683333333333 0.1951683333333333
0.0421866666666666 0.2710933333333333 0.1897733333333333
0.4850866666666665 0.2425433333333333 0.1908533333333333
0.4598316666666666 0.2299133333333333 0.1972883333333333
0.4326766666666665 0.2163383333333333 0.2165033333333333
0.4326566666666665 0.2163283333333333 0.2289683333333333
0.4623066666666666 0.2311533333333333 0.2340633333333333
0.0214366666666667 0.2607183333333333 0.2333333333333333
0.0468566666666667 0.2734283333333333 0.2267983333333333
0.0458366666666666 0.2729183333333333 0.2138883333333333
0.0165966666666666 0.2582983333333333 0.2082233333333333
0.0163666666666667 0.2581833333333333 0.1964783333333333
0.4597566666666665 0.2298783333333333 0.2097133333333333
0.4881966666666665 0.2440983333333333 0.2155033333333333
0.4897966666666665 0.2448983333333333 0.2274433333333333
0.0993166666666666 0.2996583333333332 0.1875333333333333
0.4044266666666667 0.2022133333333334 0.2361533333333333
0.4523766666666666 0.4047533333333332 0.3101833333333333
0.4251216666666665 0.3502433333333332 0.2977633333333333
0.4095616666666665 0.3191233333333333 0.2909183333333333
0.3826216666666666 0.2652433333333333 0.2781733333333333
0.4677066666666666 0.4354133333333333 0.3171783333333333
0.3675066666666666 0.2350133333333333 0.2711583333333333
0.4697366666666666 0.3909383333333333 0.3072733333333332
0.4564366666666666 0.3633983333333333 0.3010633333333332
0.4278016666666666 0.3061033333333333 0.2879733333333332
0.4135366666666667 0.2788083333333333 0.2817483333333333
0.4737566666666666 0.3486133333333333 0.2975933333333333
0.4595016666666666 0.3202483333333333 0.2920583333333333
0.4212016666666666 0.3909383333333333 0.3072733333333332
0.4069616666666666 0.3633983333333333 0.3010633333333332
0.3783016666666666 0.3061033333333333 0.2879733333333332
0.3652716666666667 0.2788083333333333 0.2817483333333333
0.3748566666666666 0.3486133333333333 0.2975933333333333
0.3607466666666666 0.3202483333333333 0.2920583333333333
0.1090616666666666 0.0302633333333333 0.3072733333333332
0.1366016666666666 0.0435633333333333 0.3010633333333332
0.1938966666666666 0.0721983333333333 0.2879733333333332
0.2211916666666666 0.0864633333333333 0.2817483333333333
0.1513866666666666 0.0262433333333333 0.2975933333333333
0.1797516666666666 0.0404983333333333 0.2920583333333333
0.4697366666666666 0.0787983333333333 0.3072733333333332
0.4564366666666666 0.0930383333333333 0.3010633333333332
0.4278016666666666 0.1216983333333332 0.2879733333333332
0.4135366666666667 0.1347283333333333 0.2817483333333333
0.4737566666666667 0.1251433333333334 0.2975933333333333
0.4595016666666666 0.1392533333333333 0.2920583333333333
0.2242716666666666 0.0878683333333333 0.3593933333333333
0.1967316666666666 0.0736283333333333 0.3656033333333333
0.1394366666666666 0.0449683333333333 0.3786933333333333
0.1121416666666666 0.0319383333333333 0.3849183333333333
0.1819466666666666 0.0415233333333333 0.3690733333333332
0.1535816666666666 0.0274133333333333 0.3746083333333333
0.4121316666666666 0.1364033333333333 0.3593933333333333
0.4263716666666666 0.1231033333333333 0.3656033333333333
0.4550316666666666 0.0944683333333334 0.3786933333333333
0.4680616666666667 0.0802033333333334 0.3849183333333333
0.4584766666666666 0.1404233333333333 0.3690733333333332
0.4725866666666667 0.1261683333333333 0.3746083333333333
0.3635966666666666 0.2757283333333333 0.3593933333333333
0.3768966666666665 0.3032683333333332 0.3656033333333333
0.4055316666666666 0.3605633333333333 0.3786933333333333
0.4197966666666665 0.3878583333333332 0.3849183333333333
0.3595766666666666 0.3180533333333333 0.3690733333333332
0.3738316666666666 0.3464183333333333 0.3746083333333333
0.4530449999999999 0.0469550000000000 0.6263699999999999
0.4522349999999999 0.0477650000000000 0.6381650000000000
0.4377599999999999 0.0622400000000000 0.6435599999999999
0.4092099999999999 0.0907900000000000 0.6424799999999998
0.3965850000000000 0.1034200000000000 0.6360449999999999
0.3830049999999999 0.1169950000000000 0.6168299999999999
0.3829949999999999 0.1170050000000000 0.6043649999999999
0.3978200000000000 0.1021800000000000 0.5992699999999999
0.4273849999999999 0.0726150000000000 0.5999999999999999
0.4400949999999999 0.0599050000000000 0.6065349999999999
0.4395849999999999 0.0604150000000000 0.6194449999999999
0.4249649999999999 0.0750350000000000 0.6251099999999999
0.4248499999999999 0.0751500000000000 0.6368549999999998
0.3965449999999999 0.1034550000000000 0.6236199999999998
0.4107649999999999 0.0892350000000000 0.6178299999999999
0.4115650000000000 0.0884350000000000 0.6058899999999999
0.4663249999999999 0.0336750000000000 0.6457999999999999
0.3688799999999999 0.1311200000000000 0.5971799999999999
0.2142900000000000 0.4285800000000000 0.5231499999999999
0.2415450000000000 0.4830900000000000 0.5355699999999999
0.2571049999999999 0.0142100000000000 0.5424149999999999
0.2840449999999999 0.0680900000000000 0.5551599999999999
0.1989600000000000 0.3979200000000000 0.5161549999999999
0.2991599999999999 0.0983200000000000 0.5621749999999999
0.2454650000000000 0.4423949999999999 0.5260599999999999
0.2597050000000000 0.4699349999999999 0.5322699999999999
0.2883649999999999 0.0272300000000000 0.5453599999999998
0.3013950000000000 0.0545250000000000 0.5515849999999999
0.2918100000000000 0.4847199999999999 0.5357399999999999
0.3059200000000000 0.0130850000000000 0.5412749999999998
0.4530449999999999 0.4060899999999999 0.6263699999999999
0.4522349999999999 0.4044699999999999 0.6381650000000000
0.4377600000000000 0.3755200000000000 0.6435599999999999
0.4092100000000000 0.3184200000000000 0.6424799999999998
0.3965799999999999 0.2931650000000000 0.6360449999999999
0.3830049999999999 0.2660099999999999 0.6168299999999999
0.3829949999999999 0.2659899999999999 0.6043649999999999
0.3978200000000000 0.2956400000000000 0.5992699999999999
0.4273850000000000 0.3547700000000000 0.5999999999999999
0.4400950000000000 0.3801900000000000 0.6065349999999999
0.4395849999999999 0.3791700000000000 0.6194449999999999
0.4249649999999999 0.3499300000000000 0.6251099999999999
0.4248499999999999 0.3497000000000000 0.6368549999999998
0.3965449999999999 0.2930900000000000 0.6236199999999998
0.4107649999999999 0.3215300000000000 0.6178299999999999
0.4115650000000000 0.3231300000000000 0.6058899999999999
0.4663249999999999 0.4326499999999999 0.6457999999999999
0.3688799999999999 0.2377600000000000 0.5971799999999999
0.0714200000000000 0.2857100000000000 0.5231499999999999
0.0169100000000000 0.2584550000000000 0.5355699999999999
0.4857899999999999 0.2428950000000000 0.5424149999999999
0.4319100000000000 0.2159550000000000 0.5551599999999999
0.1020800000000000 0.3010399999999999 0.5161549999999999
0.4016799999999999 0.2008400000000000 0.5621749999999999
0.0576050000000000 0.3030700000000000 0.5260599999999999
0.0300650000000000 0.2897700000000000 0.5322699999999999
0.4727699999999999 0.2611350000000000 0.5453599999999998
0.4454749999999999 0.2468700000000000 0.5515849999999999
0.0152800000000000 0.3070900000000000 0.5357399999999999
0.4869149999999999 0.2928350000000000 0.5412749999999998
0.0939100000000000 0.0469550000000000 0.6263699999999999
0.0955300000000000 0.0477650000000000 0.6381650000000000
0.1244800000000000 0.0622400000000000 0.6435599999999999
0.1815799999999999 0.0907900000000000 0.6424799999999998
0.2068350000000000 0.1034150000000000 0.6360449999999999
0.2339900000000000 0.1169950000000000 0.6168299999999999
0.2340100000000000 0.1170050000000000 0.6043649999999999
0.2043600000000000 0.1021800000000000 0.5992699999999999
0.1452300000000000 0.0726150000000000 0.5999999999999999
0.1198100000000000 0.0599050000000000 0.6065349999999999
0.1208300000000000 0.0604150000000000 0.6194449999999999
0.1500700000000000 0.0750350000000000 0.6251099999999999
0.1503000000000000 0.0751500000000000 0.6368549999999998
0.2069100000000000 0.1034550000000000 0.6236199999999998
0.1784700000000000 0.0892350000000000 0.6178299999999999
0.1768699999999999 0.0884350000000000 0.6058899999999999
0.0673500000000000 0.0336750000000000 0.6457999999999999
0.2622400000000000 0.1311200000000000 0.5971799999999999
0.2142900000000000 0.2857100000000000 0.5231499999999999
0.2415450000000000 0.2584550000000000 0.5355699999999999
0.2571050000000000 0.2428950000000000 0.5424149999999999
0.2840449999999999 0.2159550000000000 0.5551599999999999
0.1989600000000000 0.3010399999999999 0.5161549999999999
0.2991600000000000 0.2008400000000000 0.5621749999999999
0.1969300000000000 0.2545350000000000 0.5260599999999999
0.2102300000000000 0.2402950000000000 0.5322699999999999
0.2388650000000000 0.2116350000000000 0.5453599999999998
0.2531299999999999 0.1986049999999999 0.5515849999999999
0.1929100000000000 0.2081900000000000 0.5357399999999999
0.2071650000000000 0.1940800000000000 0.5412749999999998
0.0469550000000000 0.4530450000000000 0.8736299999999999
0.0477650000000000 0.4522350000000000 0.8618349999999999
0.0622400000000000 0.4377600000000000 0.8564399999999998
0.0907900000000000 0.4092100000000001 0.8575199999999998
0.1034200000000000 0.3965850000000000 0.8639549999999998
0.1169950000000000 0.3830050000000000 0.8831699999999999
0.1170050000000000 0.3829949999999999 0.8956349999999997
0.1021800000000000 0.3978200000000000 0.9007299999999999
0.0726150000000000 0.4273850000000000 0.8999999999999999
0.0599050000000000 0.4400950000000000 0.8934649999999997
0.0604150000000000 0.4395849999999999 0.8805549999999998
0.0750350000000000 0.4249650000000000 0.8748899999999997
0.0751500000000000 0.4248500000000000 0.8631449999999998
0.1034550000000000 0.3965450000000000 0.8763799999999998
0.0892350000000000 0.4107649999999999 0.8821699999999999
0.0884350000000000 0.4115650000000000 0.8941099999999998
0.0336750000000000 0.4663250000000000 0.8541999999999997
0.1311200000000000 0.3688799999999999 0.9028199999999998
0.4285800000000000 0.2142900000000000 0.9768499999999999
0.4830900000000000 0.2415450000000000 0.9644299999999998
0.0142100000000000 0.2571050000000000 0.9575849999999998
0.0680900000000000 0.2840449999999999 0.9448399999999999
0.3979199999999999 0.1989600000000000 0.9838449999999999
0.0983200000000000 0.2991599999999999 0.9378249999999998
0.4423949999999999 0.2454650000000000 0.9739399999999999
0.4699349999999999 0.2597050000000000 0.9677299999999999
0.0272300000000000 0.2883649999999999 0.9546399999999997
0.0545250000000000 0.3013950000000000 0.9484149999999998
0.4847199999999999 0.2918100000000000 0.9642599999999999
0.0130850000000000 0.3059200000000000 0.9587249999999999
0.0469550000000000 0.0939100000000000 0.8736299999999999
0.0477650000000000 0.0955300000000000 0.8618349999999999
0.0622400000000000 0.1244800000000000 0.8564399999999998
0.0907900000000000 0.1815800000000000 0.8575199999999998
0.1034150000000000 0.2068350000000000 0.8639549999999998
0.1169950000000000 0.2339900000000000 0.8831699999999999
0.1170050000000000 0.2340100000000000 0.8956349999999997
0.1021800000000000 0.2043600000000000 0.9007299999999999
0.0726150000000000 0.1452299999999999 0.8999999999999999
0.0599050000000000 0.1198100000000000 0.8934649999999997
0.0604150000000000 0.1208300000000000 0.8805549999999998
0.0750350000000000 0.1500700000000000 0.8748899999999997
0.0751500000000000 0.1503000000000000 0.8631449999999998
0.1034550000000000 0.2069100000000000 0.8763799999999998
0.0892350000000000 0.1784700000000000 0.8821699999999999
0.0884350000000000 0.1768699999999999 0.8941099999999998
0.0336750000000000 0.0673500000000000 0.8541999999999997
0.1311200000000000 0.2622400000000000 0.9028199999999998
0.2857100000000000 0.2142900000000000 0.9768499999999999
0.2584550000000000 0.2415450000000000 0.9644299999999998
0.2428950000000000 0.2571050000000000 0.9575849999999998
0.2159550000000000 0.2840449999999999 0.9448399999999999
0.3010399999999999 0.1989600000000000 0.9838449999999999
0.2008400000000000 0.2991600000000000 0.9378249999999998
0.2545350000000000 0.1969300000000000 0.9739399999999999
0.2402949999999999 0.2102300000000000 0.9677299999999999
0.2116350000000000 0.2388650000000000 0.9546399999999997
0.1986049999999999 0.2531299999999999 0.9484149999999998
0.2081900000000000 0.1929100000000000 0.9642599999999999
0.1940799999999999 0.2071649999999999 0.9587249999999999
0.4060899999999999 0.4530450000000000 0.8736299999999999
0.4044699999999999 0.4522350000000000 0.8618349999999999
0.3755200000000000 0.4377600000000000 0.8564399999999998
0.3184200000000000 0.4092100000000001 0.8575199999999998
0.2931650000000000 0.3965800000000000 0.8639549999999998
0.2660100000000000 0.3830050000000000 0.8831699999999999
0.2659899999999998 0.3829949999999999 0.8956349999999997
0.2956400000000000 0.3978200000000000 0.9007299999999999
0.3547700000000000 0.4273850000000000 0.8999999999999999
0.3801900000000000 0.4400950000000000 0.8934649999999997
0.3791700000000000 0.4395849999999999 0.8805549999999998
0.3499300000000000 0.4249650000000000 0.8748899999999997
0.3497000000000000 0.4248500000000000 0.8631449999999998
0.2930900000000000 0.3965450000000000 0.8763799999999998
0.3215300000000000 0.4107649999999999 0.8821699999999999
0.3231300000000000 0.4115650000000000 0.8941099999999998
0.4326499999999999 0.4663250000000000 0.8541999999999997
0.2377599999999999 0.3688799999999999 0.9028199999999998
0.2857100000000000 0.0714200000000000 0.9768499999999999
0.2584549999999999 0.0169100000000000 0.9644299999999998
0.2428950000000000 0.4857899999999999 0.9575849999999998
0.2159550000000000 0.4319100000000000 0.9448399999999999
0.3010399999999999 0.1020800000000000 0.9838449999999999
0.2008399999999999 0.4016799999999999 0.9378249999999998
0.3030700000000000 0.0576050000000000 0.9739399999999999
0.2897700000000000 0.0300650000000000 0.9677299999999999
0.2611350000000000 0.4727700000000000 0.9546399999999997
0.2468700000000000 0.4454750000000000 0.9484149999999998
0.3070900000000000 0.0152800000000000 0.9642599999999999
0.2928350000000000 0.4869149999999999 0.9587249999999999
0.2545350000000000 0.0576050000000000 0.9739399999999999
0.2402949999999999 0.0300650000000000 0.9677299999999999
0.2116350000000000 0.4727700000000000 0.9546399999999997
0.1986049999999999 0.4454750000000000 0.9484149999999998
0.2081900000000000 0.0152800000000000 0.9642599999999999
0.1940799999999999 0.4869149999999999 0.9587249999999999
0.4423949999999999 0.1969300000000000 0.9739399999999999
0.4699349999999999 0.2102300000000000 0.9677299999999999
0.0272300000000000 0.2388650000000000 0.9546399999999997
0.0545250000000000 0.2531299999999999 0.9484149999999998
0.4847199999999999 0.1929100000000000 0.9642599999999999
0.0130850000000000 0.2071649999999999 0.9587249999999999
0.3030700000000000 0.2454650000000000 0.9739399999999999
0.2897700000000000 0.2597050000000000 0.9677299999999999
0.2611350000000000 0.2883649999999999 0.9546399999999997
0.2468700000000000 0.3013950000000000 0.9484149999999998
0.3070900000000000 0.2918100000000000 0.9642599999999999
0.2928350000000000 0.3059200000000000 0.9587249999999999
0.0576050000000000 0.2545350000000000 0.5260599999999999
0.0300650000000000 0.2402950000000000 0.5322699999999999
0.4727700000000000 0.2116350000000000 0.5453599999999998
0.4454749999999999 0.1986049999999999 0.5515849999999999
0.0152800000000000 0.2081900000000000 0.5357399999999999
0.4869149999999999 0.1940800000000000 0.5412749999999998
0.2454650000000000 0.3030700000000000 0.5260599999999999
0.2597050000000000 0.2897700000000000 0.5322699999999999
0.2883649999999999 0.2611350000000000 0.5453599999999998
0.3013950000000000 0.2468700000000000 0.5515849999999999
0.2918100000000000 0.3070900000000000 0.5357399999999999
0.3059200000000000 0.2928350000000000 0.5412749999999998
0.1969300000000000 0.4423949999999999 0.5260599999999999
0.2102300000000000 0.4699349999999999 0.5322699999999999
0.2388650000000000 0.0272300000000000 0.5453599999999998
0.2531299999999999 0.0545250000000000 0.5515849999999999
0.1929099999999999 0.4847199999999999 0.5357399999999999
0.2071650000000000 0.0130850000000000 0.5412749999999998
0.2863783333333332 0.2136216666666667 0.7930366666666664
0.2855683333333333 0.2144316666666666 0.8048316666666665
0.2710933333333332 0.2289066666666666 0.8102266666666665
0.2425433333333333 0.2574566666666667 0.8091466666666666
0.2299183333333333 0.2700866666666666 0.8027116666666666
0.2163383333333333 0.2836616666666666 0.7834966666666665
0.2163283333333332 0.2836716666666666 0.7710316666666666
0.2311533333333333 0.2688466666666667 0.7659366666666666
0.2607183333333333 0.2392816666666666 0.7666666666666664
0.2734283333333333 0.2265716666666667 0.7732016666666666
0.2729183333333333 0.2270816666666667 0.7861116666666665
0.2582983333333332 0.2417016666666666 0.7917766666666666
0.2581833333333333 0.2418166666666666 0.8035216666666666
0.2298783333333332 0.2701216666666666 0.7902866666666664
0.2440983333333333 0.2559016666666666 0.7844966666666665
0.2448983333333333 0.2551016666666667 0.7725566666666666
0.2996583333333333 0.2003416666666667 0.8124666666666666
0.2022133333333333 0.2977866666666666 0.7638466666666665
0.0476233333333333 0.0952466666666667 0.6898166666666664
0.0748783333333334 0.1497566666666667 0.7022366666666665
0.0904383333333333 0.1808766666666667 0.7090816666666665
0.1173783333333333 0.2347566666666667 0.7218266666666665
0.0322933333333333 0.0645866666666667 0.6828216666666665
0.1324933333333334 0.2649866666666666 0.7288416666666665
0.0787983333333333 0.1090616666666666 0.6927266666666666
0.0930383333333333 0.1366016666666666 0.6989366666666664
0.1216983333333332 0.1938966666666667 0.7120266666666665
0.1347283333333333 0.2211916666666666 0.7182516666666665
0.1251433333333334 0.1513866666666667 0.7024066666666665
0.1392533333333333 0.1797516666666666 0.7079416666666666
0.2863783333333332 0.0727566666666666 0.7930366666666664
0.2855683333333333 0.0711366666666666 0.8048316666666665
0.2710933333333332 0.0421866666666666 0.8102266666666665
0.2425433333333333 0.4850866666666667 0.8091466666666666
0.2299133333333333 0.4598316666666666 0.8027116666666666
0.2163383333333333 0.4326766666666666 0.7834966666666665
0.2163283333333333 0.4326566666666666 0.7710316666666666
0.2311533333333333 0.4623066666666666 0.7659366666666666
0.2607183333333333 0.0214366666666667 0.7666666666666664
0.2734283333333333 0.0468566666666667 0.7732016666666666
0.2729183333333333 0.0458366666666666 0.7861116666666665
0.2582983333333332 0.0165966666666666 0.7917766666666666
0.2581833333333333 0.0163666666666666 0.8035216666666666
0.2298783333333333 0.4597566666666666 0.7902866666666664
0.2440983333333333 0.4881966666666666 0.7844966666666665
0.2448983333333333 0.4897966666666667 0.7725566666666666
0.2996583333333332 0.0993166666666666 0.8124666666666666
0.2022133333333334 0.4044266666666667 0.7638466666666665
0.4047533333333332 0.4523766666666666 0.6898166666666664
0.3502433333333332 0.4251216666666665 0.7022366666666665
0.3191233333333332 0.4095616666666665 0.7090816666666665
0.2652433333333332 0.3826216666666665 0.7218266666666665
0.4354133333333333 0.4677066666666666 0.6828216666666665
0.2350133333333333 0.3675066666666666 0.7288416666666665
0.3909383333333333 0.4697366666666666 0.6927266666666666
0.3633983333333332 0.4564366666666666 0.6989366666666664
0.3061033333333333 0.4278016666666665 0.7120266666666665
0.2788083333333332 0.4135366666666666 0.7182516666666665
0.3486133333333333 0.4737566666666667 0.7024066666666665
0.3202483333333332 0.4595016666666666 0.7079416666666666
0.4272433333333333 0.2136216666666667 0.7930366666666664
0.4288633333333333 0.2144316666666667 0.8048316666666665
0.4578133333333333 0.2289066666666667 0.8102266666666665
0.0149133333333333 0.2574566666666667 0.8091466666666666
0.0401683333333333 0.2700816666666667 0.8027116666666666
0.0673233333333333 0.2836616666666666 0.7834966666666665
0.0673433333333334 0.2836716666666666 0.7710316666666666
0.0376933333333333 0.2688466666666667 0.7659366666666666
0.4785633333333332 0.2392816666666666 0.7666666666666664
0.4531433333333332 0.2265716666666666 0.7732016666666666
0.4541633333333333 0.2270816666666666 0.7861116666666665
0.4834033333333333 0.2417016666666667 0.7917766666666666
0.4836333333333333 0.2418166666666667 0.8035216666666666
0.0402433333333334 0.2701216666666666 0.7902866666666664
0.0118033333333333 0.2559016666666666 0.7844966666666665
0.0102033333333333 0.2551016666666667 0.7725566666666666
0.4006833333333333 0.2003416666666667 0.8124666666666666
0.0955733333333333 0.2977866666666666 0.7638466666666665
0.0476233333333334 0.4523766666666666 0.6898166666666664
0.0748783333333334 0.4251216666666665 0.7022366666666665
0.0904383333333334 0.4095616666666666 0.7090816666666665
0.1173783333333332 0.3826216666666665 0.7218266666666665
0.0322933333333333 0.4677066666666666 0.6828216666666665
0.1324933333333334 0.3675066666666666 0.7288416666666665
0.0302633333333333 0.4212016666666667 0.6927266666666666
0.0435633333333333 0.4069616666666666 0.6989366666666664
0.0721983333333333 0.3783016666666665 0.7120266666666665
0.0864633333333333 0.3652716666666666 0.7182516666666665
0.0262433333333333 0.3748566666666665 0.7024066666666665
0.0404983333333334 0.3607466666666667 0.7079416666666666
0.3802883333333333 0.1197116666666667 0.5402966666666665
0.3810983333333333 0.1189016666666667 0.5285016666666665
0.3955733333333332 0.1044266666666667 0.5231066666666665
0.4241233333333332 0.0758766666666667 0.5241866666666666
0.4367533333333332 0.0632516666666667 0.5306216666666665
0.4503283333333332 0.0496716666666667 0.5498366666666665
0.4503383333333332 0.0496616666666666 0.5623016666666666
0.4355133333333332 0.0644866666666667 0.5673966666666665
0.4059483333333332 0.0940516666666667 0.5666666666666665
0.3932383333333332 0.1067616666666667 0.5601316666666666
0.3937483333333333 0.1062516666666666 0.5472216666666666
0.4083683333333332 0.0916316666666667 0.5415566666666666
0.4084833333333332 0.0915166666666667 0.5298116666666666
0.4367883333333332 0.0632116666666667 0.5430466666666666
0.4225683333333333 0.0774316666666667 0.5488366666666665
0.4217683333333332 0.0782316666666667 0.5607766666666666
0.3670083333333333 0.1329916666666666 0.5208666666666665
0.4644533333333332 0.0355466666666666 0.5694866666666667
0.2619133333333333 0.3809566666666666 0.6435166666666665
0.3164233333333332 0.4082116666666666 0.6310966666666665
0.3475433333333333 0.4237716666666667 0.6242516666666665
0.4014233333333332 0.4507116666666666 0.6115066666666665
0.2312533333333333 0.3656266666666667 0.6505116666666665
0.4316533333333333 0.4658266666666666 0.6044916666666665
0.2757283333333334 0.4121316666666667 0.6406066666666665
0.3032683333333333 0.4263716666666667 0.6343966666666665
0.3605633333333333 0.4550316666666666 0.6213066666666666
0.3878583333333333 0.4680616666666667 0.6150816666666666
0.3180533333333332 0.4584766666666666 0.6309266666666665
0.3464183333333333 0.4725866666666667 0.6253916666666666
0.3802883333333333 0.2605766666666666 0.5402966666666665
0.3810983333333333 0.2621966666666666 0.5285016666666665
0.3955733333333333 0.2911466666666667 0.5231066666666665
0.4241233333333332 0.3482466666666666 0.5241866666666666
0.4367483333333332 0.3735016666666666 0.5306216666666665
0.4503283333333333 0.4006566666666667 0.5498366666666665
0.4503383333333333 0.4006766666666666 0.5623016666666666
0.4355133333333333 0.3710266666666666 0.5673966666666665
0.4059483333333332 0.3118966666666665 0.5666666666666665
0.3932383333333332 0.2864766666666666 0.5601316666666666
0.3937483333333333 0.2874966666666666 0.5472216666666666
0.4083683333333333 0.3167366666666667 0.5415566666666666
0.4084833333333333 0.3169666666666666 0.5298116666666666
0.4367883333333333 0.3735766666666667 0.5430466666666666
0.4225683333333333 0.3451366666666666 0.5488366666666665
0.4217683333333332 0.3435366666666666 0.5607766666666666
0.3670083333333333 0.2340166666666667 0.5208666666666665
0.4644533333333333 0.4289066666666666 0.5694866666666667
0.1190433333333333 0.3809566666666666 0.6435166666666665
0.0917883333333333 0.4082116666666666 0.6310966666666665
0.0762283333333334 0.4237716666666667 0.6242516666666665
0.0492883333333333 0.4507116666666666 0.6115066666666665
0.1343733333333333 0.3656266666666667 0.6505116666666665
0.0341733333333333 0.4658266666666667 0.6044916666666665
0.0878683333333333 0.3635966666666667 0.6406066666666665
0.0736283333333333 0.3768966666666667 0.6343966666666665
0.0449683333333333 0.4055316666666666 0.6213066666666666
0.0319383333333333 0.4197966666666666 0.6150816666666666
0.0415233333333333 0.3595766666666667 0.6309266666666665
0.0274133333333333 0.3738316666666667 0.6253916666666666
0.2394233333333333 0.1197116666666667 0.5402966666666665
0.2378033333333333 0.1189016666666666 0.5285016666666665
0.2088533333333333 0.1044266666666667 0.5231066666666665
0.1517533333333334 0.0758766666666666 0.5241866666666666
0.1264983333333334 0.0632466666666666 0.5306216666666665
0.0993433333333333 0.0496716666666667 0.5498366666666665
0.0993233333333332 0.0496616666666667 0.5623016666666666
0.1289733333333334 0.0644866666666667 0.5673966666666665
0.1881033333333333 0.0940516666666667 0.5666666666666665
0.2135233333333332 0.1067616666666667 0.5601316666666666
0.2125033333333332 0.1062516666666666 0.5472216666666666
0.1832633333333333 0.0916316666666667 0.5415566666666666
0.1830333333333334 0.0915166666666666 0.5298116666666666
0.1264233333333333 0.0632116666666667 0.5430466666666666
0.1548633333333333 0.0774316666666667 0.5488366666666665
0.1564633333333333 0.0782316666666667 0.5607766666666666
0.2659833333333332 0.1329916666666667 0.5208666666666665
0.0710933333333333 0.0355466666666667 0.5694866666666667
0.1190433333333333 0.2380866666666666 0.6435166666666665
0.0917883333333333 0.1835766666666666 0.6310966666666665
0.0762283333333333 0.1524566666666667 0.6242516666666665
0.0492883333333334 0.0985766666666667 0.6115066666666665
0.1343733333333333 0.2687466666666667 0.6505116666666665
0.0341733333333333 0.0683466666666667 0.6044916666666665
0.1364033333333333 0.2242716666666666 0.6406066666666665
0.1231033333333333 0.1967316666666666 0.6343966666666665
0.0944683333333333 0.1394366666666667 0.6213066666666666
0.0802033333333334 0.1121416666666667 0.6150816666666666
0.1404233333333334 0.1819466666666667 0.6309266666666665
0.1261683333333333 0.1535816666666667 0.6253916666666666
0.0878683333333333 0.2242716666666666 0.6406066666666665
0.0736283333333333 0.1967316666666666 0.6343966666666665
0.0449683333333333 0.1394366666666667 0.6213066666666666
0.0319383333333333 0.1121416666666667 0.6150816666666666
0.0415233333333333 0.1819466666666667 0.6309266666666665
0.0274133333333333 0.1535816666666667 0.6253916666666666
0.2757283333333334 0.3635966666666667 0.6406066666666665
0.3032683333333332 0.3768966666666667 0.6343966666666665
0.3605633333333332 0.4055316666666666 0.6213066666666666
0.3878583333333333 0.4197966666666666 0.6150816666666666
0.3180533333333333 0.3595766666666667 0.6309266666666665
0.3464183333333333 0.3738316666666667 0.6253916666666666
0.1364033333333333 0.4121316666666667 0.6406066666666665
0.1231033333333334 0.4263716666666667 0.6343966666666665
0.0944683333333334 0.4550316666666666 0.6213066666666666
0.0802033333333334 0.4680616666666667 0.6150816666666666
0.1404233333333333 0.4584766666666666 0.6309266666666665
0.1261683333333333 0.4725866666666667 0.6253916666666666
0.3909383333333333 0.4212016666666667 0.6927266666666666
0.3633983333333332 0.4069616666666666 0.6989366666666664
0.3061033333333333 0.3783016666666665 0.7120266666666665
0.2788083333333333 0.3652716666666666 0.7182516666666665
0.3486133333333332 0.3748566666666665 0.7024066666666665
0.3202483333333333 0.3607466666666667 0.7079416666666666
0.0787983333333333 0.4697366666666666 0.6927266666666666
0.0930383333333333 0.4564366666666666 0.6989366666666664
0.1216983333333332 0.4278016666666665 0.7120266666666665
0.1347283333333333 0.4135366666666666 0.7182516666666665
0.1251433333333334 0.4737566666666667 0.7024066666666665
0.1392533333333333 0.4595016666666666 0.7079416666666666
0.0302633333333333 0.1090616666666666 0.6927266666666666
0.0435633333333333 0.1366016666666666 0.6989366666666664
0.0721983333333333 0.1938966666666667 0.7120266666666665
0.0864633333333333 0.2211916666666666 0.7182516666666665
0.0262433333333333 0.1513866666666667 0.7024066666666665
0.0404983333333333 0.1797516666666666 0.7079416666666666
0.1197116666666666 0.3802883333333333 0.9597033333333332
0.1189016666666667 0.3810983333333333 0.9714983333333331
0.1044266666666667 0.3955733333333333 0.9768933333333331
0.0758766666666667 0.4241233333333332 0.9758133333333331
0.0632516666666667 0.4367533333333332 0.9693783333333331
0.0496716666666666 0.4503283333333333 0.9501633333333330
0.0496616666666666 0.4503383333333332 0.9376983333333331
0.0644866666666667 0.4355133333333333 0.9326033333333331
0.0940516666666666 0.4059483333333332 0.9333333333333332
0.1067616666666666 0.3932383333333332 0.9398683333333331
0.1062516666666666 0.3937483333333333 0.9527783333333331
0.0916316666666667 0.4083683333333333 0.9584433333333331
0.0915166666666667 0.4084833333333333 0.9701883333333331
0.0632116666666667 0.4367883333333333 0.9569533333333332
0.0774316666666667 0.4225683333333333 0.9511633333333332
0.0782316666666667 0.4217683333333332 0.9392233333333332
0.1329916666666666 0.3670083333333333 0.9791333333333331
0.0355466666666667 0.4644533333333333 0.9305133333333332
0.3809566666666666 0.2619133333333333 0.8564833333333332
0.4082116666666666 0.3164233333333333 0.8689033333333332
0.4237716666666666 0.3475433333333333 0.8757483333333332
0.4507116666666666 0.4014233333333334 0.8884933333333332
0.3656266666666666 0.2312533333333333 0.8494883333333331
0.4658266666666665 0.4316533333333333 0.8955083333333331
0.4121316666666666 0.2757283333333334 0.8593933333333332
0.4263716666666666 0.3032683333333333 0.8656033333333332
0.4550316666666666 0.3605633333333333 0.8786933333333332
0.4680616666666667 0.3878583333333333 0.8849183333333331
0.4584766666666666 0.3180533333333333 0.8690733333333333
0.4725866666666667 0.3464183333333333 0.8746083333333332
0.1197116666666667 0.2394233333333333 0.9597033333333332
0.1189016666666667 0.2378033333333334 0.9714983333333331
0.1044266666666667 0.2088533333333333 0.9768933333333331
0.0758766666666666 0.1517533333333334 0.9758133333333331
0.0632466666666666 0.1264983333333334 0.9693783333333331
0.0496716666666667 0.0993433333333333 0.9501633333333330
0.0496616666666667 0.0993233333333332 0.9376983333333331
0.0644866666666667 0.1289733333333334 0.9326033333333331
0.0940516666666667 0.1881033333333333 0.9333333333333332
0.1067616666666666 0.2135233333333333 0.9398683333333331
0.1062516666666666 0.2125033333333332 0.9527783333333331
0.0916316666666667 0.1832633333333333 0.9584433333333331
0.0915166666666666 0.1830333333333334 0.9701883333333331
0.0632116666666667 0.1264233333333333 0.9569533333333332
0.0774316666666667 0.1548633333333334 0.9511633333333332
0.0782316666666667 0.1564633333333334 0.9392233333333332
0.1329916666666667 0.2659833333333332 0.9791333333333331
0.0355466666666667 0.0710933333333333 0.9305133333333332
0.2380866666666666 0.1190433333333333 0.8564833333333332
0.1835766666666666 0.0917883333333333 0.8689033333333332
0.1524566666666666 0.0762283333333333 0.8757483333333332
0.0985766666666666 0.0492883333333334 0.8884933333333332
0.2687466666666666 0.1343733333333333 0.8494883333333331
0.0683466666666667 0.0341733333333333 0.8955083333333331
0.2242716666666666 0.1364033333333333 0.8593933333333332
0.1967316666666666 0.1231033333333333 0.8656033333333332
0.1394366666666666 0.0944683333333334 0.8786933333333332
0.1121416666666667 0.0802033333333334 0.8849183333333331
0.1819466666666667 0.1404233333333333 0.8690733333333333
0.1535816666666666 0.1261683333333333 0.8746083333333332
0.2605766666666666 0.3802883333333333 0.9597033333333332
0.2621966666666666 0.3810983333333333 0.9714983333333331
0.2911466666666667 0.3955733333333333 0.9768933333333331
0.3482466666666665 0.4241233333333332 0.9758133333333331
0.3735016666666666 0.4367483333333332 0.9693783333333331
0.4006566666666665 0.4503283333333333 0.9501633333333330
0.4006766666666667 0.4503383333333333 0.9376983333333331
0.3710266666666665 0.4355133333333333 0.9326033333333331
0.3118966666666665 0.4059483333333332 0.9333333333333332
0.2864766666666665 0.3932383333333332 0.9398683333333331
0.2874966666666666 0.3937483333333333 0.9527783333333331
0.3167366666666666 0.4083683333333333 0.9584433333333331
0.3169666666666666 0.4084833333333333 0.9701883333333331
0.3735766666666666 0.4367883333333333 0.9569533333333332
0.3451366666666666 0.4225683333333333 0.9511633333333332
0.3435366666666665 0.4217683333333332 0.9392233333333332
0.2340166666666666 0.3670083333333333 0.9791333333333331
0.4289066666666666 0.4644533333333333 0.9305133333333332
0.3809566666666666 0.1190433333333333 0.8564833333333332
0.4082116666666666 0.0917883333333333 0.8689033333333332
0.4237716666666666 0.0762283333333333 0.8757483333333332
0.4507116666666666 0.0492883333333333 0.8884933333333332
0.3656266666666667 0.1343733333333333 0.8494883333333331
0.4658266666666666 0.0341733333333333 0.8955083333333331
0.3635966666666666 0.0878683333333333 0.8593933333333332
0.3768966666666667 0.0736283333333333 0.8656033333333332
0.4055316666666666 0.0449683333333333 0.8786933333333332
0.4197966666666666 0.0319383333333333 0.8849183333333331
0.3595766666666667 0.0415233333333333 0.8690733333333333
0.3738316666666667 0.0274133333333333 0.8746083333333332
0.2136216666666667 0.2863783333333332 0.7069633333333332
0.2144316666666666 0.2855683333333333 0.6951683333333332
0.2289066666666666 0.2710933333333334 0.6897733333333332
0.2574566666666667 0.2425433333333333 0.6908533333333332
0.2700866666666666 0.2299183333333333 0.6972883333333332
0.2836616666666666 0.2163383333333333 0.7165033333333332
0.2836716666666666 0.2163283333333332 0.7289683333333332
0.2688466666666666 0.2311533333333333 0.7340633333333332
0.2392816666666666 0.2607183333333333 0.7333333333333332
0.2265716666666667 0.2734283333333334 0.7267983333333332
0.2270816666666667 0.2729183333333333 0.7138883333333332
0.2417016666666666 0.2582983333333333 0.7082233333333332
0.2418166666666666 0.2581833333333333 0.6964783333333332
0.2701216666666666 0.2298783333333333 0.7097133333333332
0.2559016666666666 0.2440983333333333 0.7155033333333333
0.2551016666666666 0.2448983333333333 0.7274433333333332
0.2003416666666666 0.2996583333333334 0.6875333333333332
0.2977866666666666 0.2022133333333334 0.7361533333333332
0.0952466666666667 0.0476233333333334 0.8101833333333331
0.1497566666666666 0.0748783333333334 0.7977633333333333
0.1808766666666666 0.0904383333333333 0.7909183333333333
0.2347566666666666 0.1173783333333334 0.7781733333333332
0.0645866666666667 0.0322933333333333 0.8171783333333332
0.2649866666666666 0.1324933333333333 0.7711583333333333
0.1090616666666666 0.0787983333333333 0.8072733333333332
0.1366016666666666 0.0930383333333333 0.8010633333333331
0.1938966666666666 0.1216983333333332 0.7879733333333332
0.2211916666666666 0.1347283333333333 0.7817483333333332
0.1513866666666667 0.1251433333333334 0.7975933333333332
0.1797516666666666 0.1392533333333333 0.7920583333333332
0.2136216666666667 0.4272433333333333 0.7069633333333332
0.2144316666666666 0.4288633333333333 0.6951683333333332
0.2289066666666667 0.4578133333333333 0.6897733333333332
0.2574566666666667 0.0149133333333333 0.6908533333333332
0.2700816666666666 0.0401683333333333 0.6972883333333332
0.2836616666666666 0.0673233333333333 0.7165033333333332
0.2836716666666666 0.0673433333333334 0.7289683333333332
0.2688466666666666 0.0376933333333333 0.7340633333333332
0.2392816666666666 0.4785633333333332 0.7333333333333332
0.2265716666666666 0.4531433333333332 0.7267983333333332
0.2270816666666666 0.4541633333333333 0.7138883333333332
0.2417016666666667 0.4834033333333333 0.7082233333333332
0.2418166666666667 0.4836333333333332 0.6964783333333332
0.2701216666666666 0.0402433333333333 0.7097133333333332
0.2559016666666666 0.0118033333333333 0.7155033333333333
0.2551016666666666 0.0102033333333333 0.7274433333333332
0.2003416666666666 0.4006833333333333 0.6875333333333332
0.2977866666666666 0.0955733333333333 0.7361533333333332
0.4523766666666666 0.0476233333333334 0.8101833333333331
0.4251216666666666 0.0748783333333334 0.7977633333333333
0.4095616666666667 0.0904383333333333 0.7909183333333333
0.3826216666666666 0.1173783333333333 0.7781733333333332
0.4677066666666666 0.0322933333333333 0.8171783333333332
0.3675066666666666 0.1324933333333333 0.7711583333333333
0.4212016666666666 0.0302633333333333 0.8072733333333332
0.4069616666666667 0.0435633333333333 0.8010633333333331
0.3783016666666666 0.0721983333333333 0.7879733333333332
0.3652716666666666 0.0864633333333333 0.7817483333333332
0.3748566666666666 0.0262433333333333 0.7975933333333332
0.3607466666666666 0.0404983333333333 0.7920583333333332
0.0727566666666666 0.2863783333333332 0.7069633333333332
0.0711366666666666 0.2855683333333333 0.6951683333333332
0.0421866666666666 0.2710933333333334 0.6897733333333332
0.4850866666666666 0.2425433333333333 0.6908533333333332
0.4598316666666665 0.2299133333333333 0.6972883333333332
0.4326766666666665 0.2163383333333333 0.7165033333333332
0.4326566666666665 0.2163283333333333 0.7289683333333332
0.4623066666666665 0.2311533333333333 0.7340633333333332
0.0214366666666667 0.2607183333333333 0.7333333333333332
0.0468566666666667 0.2734283333333333 0.7267983333333332
0.0458366666666667 0.2729183333333333 0.7138883333333332
0.0165966666666666 0.2582983333333333 0.7082233333333332
0.0163666666666666 0.2581833333333333 0.6964783333333332
0.4597566666666665 0.2298783333333333 0.7097133333333332
0.4881966666666665 0.2440983333333333 0.7155033333333333
0.4897966666666665 0.2448983333333333 0.7274433333333332
0.0993166666666666 0.2996583333333333 0.6875333333333332
0.4044266666666666 0.2022133333333333 0.7361533333333332
0.4523766666666666 0.4047533333333333 0.8101833333333331
0.4251216666666666 0.3502433333333332 0.7977633333333333
0.4095616666666665 0.3191233333333333 0.7909183333333333
0.3826216666666666 0.2652433333333333 0.7781733333333332
0.4677066666666666 0.4354133333333333 0.8171783333333332
0.3675066666666666 0.2350133333333333 0.7711583333333333
0.4697366666666666 0.3909383333333333 0.8072733333333332
0.4564366666666666 0.3633983333333333 0.8010633333333331
0.4278016666666666 0.3061033333333333 0.7879733333333332
0.4135366666666666 0.2788083333333333 0.7817483333333332
0.4737566666666666 0.3486133333333333 0.7975933333333332
0.4595016666666666 0.3202483333333333 0.7920583333333332
0.4212016666666666 0.3909383333333333 0.8072733333333332
0.4069616666666666 0.3633983333333333 0.8010633333333331
0.3783016666666666 0.3061033333333333 0.7879733333333332
0.3652716666666666 0.2788083333333333 0.7817483333333332
0.3748566666666666 0.3486133333333333 0.7975933333333332
0.3607466666666666 0.3202483333333333 0.7920583333333332
0.1090616666666666 0.0302633333333333 0.8072733333333332
0.1366016666666666 0.0435633333333333 0.8010633333333331
0.1938966666666666 0.0721983333333333 0.7879733333333332
0.2211916666666666 0.0864633333333333 0.7817483333333332
0.1513866666666666 0.0262433333333333 0.7975933333333332
0.1797516666666666 0.0404983333333333 0.7920583333333332
0.4697366666666666 0.0787983333333333 0.8072733333333332
0.4564366666666667 0.0930383333333333 0.8010633333333331
0.4278016666666666 0.1216983333333332 0.7879733333333332
0.4135366666666667 0.1347283333333333 0.7817483333333332
0.4737566666666667 0.1251433333333334 0.7975933333333332
0.4595016666666666 0.1392533333333333 0.7920583333333332
0.2242716666666666 0.0878683333333333 0.8593933333333332
0.1967316666666666 0.0736283333333333 0.8656033333333332
0.1394366666666666 0.0449683333333333 0.8786933333333332
0.1121416666666667 0.0319383333333333 0.8849183333333331
0.1819466666666667 0.0415233333333333 0.8690733333333333
0.1535816666666666 0.0274133333333333 0.8746083333333332
0.4121316666666666 0.1364033333333333 0.8593933333333332
0.4263716666666667 0.1231033333333333 0.8656033333333332
0.4550316666666666 0.0944683333333334 0.8786933333333332
0.4680616666666667 0.0802033333333334 0.8849183333333331
0.4584766666666666 0.1404233333333333 0.8690733333333333
0.4725866666666667 0.1261683333333333 0.8746083333333332
0.3635966666666667 0.2757283333333334 0.8593933333333332
0.3768966666666666 0.3032683333333333 0.8656033333333332
0.4055316666666666 0.3605633333333333 0.8786933333333332
0.4197966666666666 0.3878583333333333 0.8849183333333331
0.3595766666666667 0.3180533333333333 0.8690733333333333
0.3738316666666666 0.3464183333333333 0.8746083333333332
0.4530449999999999 0.5469550000000000 0.1263700000000000
0.4522349999999999 0.5477650000000001 0.1381650000000000
0.4377599999999999 0.5622399999999999 0.1435600000000000
0.4092100000000000 0.5907900000000000 0.1424800000000000
0.3965850000000000 0.6034200000000000 0.1360450000000000
0.3830049999999999 0.6169950000000000 0.1168300000000000
0.3829949999999999 0.6170050000000000 0.1043650000000000
0.3978199999999999 0.6021800000000000 0.0992700000000000
0.4273849999999999 0.5726149999999999 0.1000000000000000
0.4400949999999999 0.5599050000000000 0.1065350000000000
0.4395849999999999 0.5604150000000000 0.1194450000000000
0.4249649999999999 0.5750349999999999 0.1251100000000000
0.4248499999999999 0.5751499999999999 0.1368550000000000
0.3965449999999999 0.6034550000000000 0.1236200000000000
0.4107649999999999 0.5892350000000000 0.1178300000000000
0.4115649999999999 0.5884350000000000 0.1058900000000000
0.4663249999999999 0.5336750000000000 0.1458000000000000
0.3688800000000000 0.6311200000000000 0.0971800000000000
0.2142900000000000 0.9285800000000000 0.0231500000000000
0.2415449999999999 0.9830899999999999 0.0355700000000000
0.2571049999999999 0.5142100000000001 0.0424150000000000
0.2840450000000000 0.5680900000000000 0.0551600000000000
0.1989600000000000 0.8979199999999999 0.0161550000000000
0.2991599999999999 0.5983200000000000 0.0621750000000000
0.2454650000000000 0.9423949999999999 0.0260600000000000
0.2597050000000000 0.9699350000000000 0.0322700000000000
0.2883650000000000 0.5272300000000000 0.0453600000000000
0.3013950000000000 0.5545249999999999 0.0515850000000000
0.2918100000000000 0.9847200000000000 0.0357400000000000
0.3059200000000001 0.5130850000000000 0.0412750000000000
0.4530450000000000 0.9060899999999998 0.1263700000000000
0.4522349999999999 0.9044700000000000 0.1381650000000000
0.4377599999999999 0.8755200000000000 0.1435600000000000
0.4092100000000000 0.8184200000000000 0.1424800000000000
0.3965799999999999 0.7931649999999999 0.1360450000000000
0.3830049999999999 0.7660100000000000 0.1168300000000000
0.3829949999999999 0.7659899999999998 0.1043650000000000
0.3978199999999999 0.7956399999999999 0.0992700000000000
0.4273850000000000 0.8547700000000000 0.1000000000000000
0.4400950000000000 0.8801899999999999 0.1065350000000000
0.4395849999999999 0.8791699999999999 0.1194450000000000
0.4249649999999999 0.8499300000000000 0.1251100000000000
0.4248499999999999 0.8496999999999999 0.1368550000000000
0.3965449999999999 0.7930900000000000 0.1236200000000000
0.4107649999999999 0.8215299999999999 0.1178300000000000
0.4115650000000000 0.8231300000000000 0.1058900000000000
0.4663249999999999 0.9326499999999999 0.1458000000000000
0.3688799999999999 0.7377599999999999 0.0971800000000000
0.0714200000000000 0.7857100000000000 0.0231500000000000
0.0169100000000000 0.7584549999999999 0.0355700000000000
0.4857899999999999 0.7428950000000000 0.0424150000000000
0.4319100000000000 0.7159549999999999 0.0551600000000000
0.1020800000000000 0.8010400000000000 0.0161550000000000
0.4016800000000000 0.7008399999999999 0.0621750000000000
0.0576050000000001 0.8030699999999998 0.0260600000000000
0.0300650000000001 0.7897700000000001 0.0322700000000000
0.4727700000000000 0.7611350000000000 0.0453600000000000
0.4454750000000000 0.7468700000000000 0.0515850000000000
0.0152800000000000 0.8070900000000000 0.0357400000000000
0.4869149999999999 0.7928350000000000 0.0412750000000000
0.0939100000000000 0.5469550000000001 0.1263700000000000
0.0955300000000000 0.5477650000000001 0.1381650000000000
0.1244800000000000 0.5622400000000001 0.1435600000000000
0.1815799999999999 0.5907899999999999 0.1424800000000000
0.2068350000000000 0.6034149999999999 0.1360450000000000
0.2339900000000000 0.6169950000000000 0.1168300000000000
0.2340100000000001 0.6170050000000000 0.1043650000000000
0.2043600000000000 0.6021799999999999 0.0992700000000000
0.1452299999999999 0.5726149999999999 0.1000000000000000
0.1198099999999999 0.5599050000000000 0.1065350000000000
0.1208300000000000 0.5604150000000000 0.1194450000000000
0.1500700000000000 0.5750349999999999 0.1251100000000000
0.1503000000000000 0.5751499999999999 0.1368550000000000
0.2069100000000000 0.6034550000000001 0.1236200000000000
0.1784700000000000 0.5892350000000000 0.1178300000000000
0.1768700000000000 0.5884350000000000 0.1058900000000000
0.0673500000000000 0.5336750000000000 0.1458000000000000
0.2622400000000000 0.6311200000000000 0.0971800000000000
0.2142900000000000 0.7857100000000000 0.0231500000000000
0.2415450000000000 0.7584549999999999 0.0355700000000000
0.2571050000000000 0.7428950000000000 0.0424150000000000
0.2840449999999999 0.7159549999999999 0.0551600000000000
0.1989600000000000 0.8010400000000000 0.0161550000000000
0.2991600000000000 0.7008400000000000 0.0621750000000000
0.1969300000000000 0.7545350000000000 0.0260600000000000
0.2102300000000000 0.7402949999999999 0.0322700000000000
0.2388650000000000 0.7116349999999999 0.0453600000000000
0.2531300000000000 0.6986049999999998 0.0515850000000000
0.1929099999999999 0.7081899999999999 0.0357400000000000
0.2071650000000000 0.6940799999999999 0.0412750000000000
0.0469550000000000 0.9530449999999999 0.3736299999999999
0.0477650000000001 0.9522349999999999 0.3618350000000000
0.0622400000000000 0.9377599999999999 0.3564399999999999
0.0907900000000001 0.9092100000000002 0.3575199999999999
0.1034200000000001 0.8965850000000000 0.3639549999999999
0.1169950000000001 0.8830050000000000 0.3831700000000000
0.1170050000000000 0.8829950000000001 0.3956349999999999
0.1021800000000000 0.8978200000000000 0.4007300000000000
0.0726150000000000 0.9273850000000000 0.3999999999999999
0.0599050000000001 0.9400950000000001 0.3934649999999999
0.0604150000000001 0.9395850000000000 0.3805549999999999
0.0750350000000001 0.9249650000000000 0.3748899999999999
0.0751500000000001 0.9248499999999999 0.3631449999999999
0.1034550000000001 0.8965449999999998 0.3763799999999999
0.0892350000000001 0.9107650000000002 0.3821700000000000
0.0884350000000001 0.9115650000000001 0.3941100000000000
0.0336750000000001 0.9663250000000001 0.3541999999999998
0.1311200000000001 0.8688800000000000 0.4028200000000000
0.4285800000000000 0.7142900000000000 0.4768499999999999
0.4830900000000000 0.7415450000000000 0.4644300000000000
0.0142100000000000 0.7571049999999999 0.4575850000000000
0.0680900000000000 0.7840450000000000 0.4448400000000000
0.3979200000000000 0.6989600000000000 0.4838449999999999
0.0983200000000001 0.7991600000000000 0.4378249999999999
0.4423949999999999 0.7454650000000000 0.4739399999999999
0.4699349999999999 0.7597050000000000 0.4677299999999999
0.0272300000000000 0.7883650000000000 0.4546399999999999
0.0545250000000001 0.8013950000000001 0.4484150000000000
0.4847200000000000 0.7918100000000000 0.4642600000000000
0.0130850000000000 0.8059200000000000 0.4587249999999999
0.0469550000000001 0.5939100000000000 0.3736299999999999
0.0477650000000000 0.5955300000000000 0.3618350000000000
0.0622400000000000 0.6244799999999999 0.3564399999999999
0.0907900000000001 0.6815800000000000 0.3575199999999999
0.1034150000000000 0.7068350000000000 0.3639549999999999
0.1169950000000000 0.7339900000000000 0.3831700000000000
0.1170050000000001 0.7340099999999999 0.3956349999999999
0.1021800000000000 0.7043600000000000 0.4007300000000000
0.0726150000000000 0.6452300000000000 0.3999999999999999
0.0599050000000000 0.6198099999999999 0.3934649999999999
0.0604150000000000 0.6208299999999999 0.3805549999999999
0.0750350000000000 0.6500699999999999 0.3748899999999999
0.0751500000000000 0.6503000000000000 0.3631449999999999
0.1034550000000001 0.7069099999999999 0.3763799999999999
0.0892350000000000 0.6784699999999999 0.3821700000000000
0.0884350000000000 0.6768700000000000 0.3941100000000000
0.0336750000000000 0.5673500000000000 0.3541999999999998
0.1311200000000001 0.7622400000000000 0.4028200000000000
0.2857100000000001 0.7142900000000000 0.4768499999999999
0.2584550000000000 0.7415450000000000 0.4644300000000000
0.2428950000000001 0.7571050000000000 0.4575850000000000
0.2159550000000001 0.7840450000000000 0.4448400000000000
0.3010400000000000 0.6989600000000000 0.4838449999999999
0.2008400000000001 0.7991600000000002 0.4378249999999999
0.2545350000000000 0.6969300000000000 0.4739399999999999
0.2402950000000000 0.7102299999999999 0.4677299999999999
0.2116350000000000 0.7388650000000000 0.4546399999999999
0.1986049999999999 0.7531300000000000 0.4484150000000000
0.2081900000000000 0.6929099999999999 0.4642600000000000
0.1940800000000000 0.7071650000000000 0.4587249999999999
0.4060900000000000 0.9530450000000000 0.3736299999999999
0.4044700000000000 0.9522349999999999 0.3618350000000000
0.3755200000000000 0.9377599999999999 0.3564399999999999
0.3184200000000000 0.9092100000000002 0.3575199999999999
0.2931650000000001 0.8965800000000000 0.3639549999999999
0.2660100000000000 0.8830050000000000 0.3831700000000000
0.2659900000000000 0.8829950000000001 0.3956349999999999
0.2956400000000000 0.8978200000000000 0.4007300000000000
0.3547700000000000 0.9273850000000000 0.3999999999999999
0.3801900000000000 0.9400950000000001 0.3934649999999999
0.3791700000000001 0.9395850000000000 0.3805549999999999
0.3499300000000000 0.9249650000000000 0.3748899999999999
0.3497000000000000 0.9248499999999999 0.3631449999999999
0.2930900000000000 0.8965449999999998 0.3763799999999999
0.3215300000000000 0.9107650000000002 0.3821700000000000
0.3231300000000001 0.9115650000000001 0.3941100000000000
0.4326500000000000 0.9663250000000001 0.3541999999999998
0.2377600000000001 0.8688800000000000 0.4028200000000000
0.2857100000000000 0.5714200000000000 0.4768499999999999
0.2584550000000000 0.5169100000000000 0.4644300000000000
0.2428950000000000 0.9857899999999999 0.4575850000000000
0.2159550000000000 0.9319099999999999 0.4448400000000000
0.3010400000000000 0.6020799999999999 0.4838449999999999
0.2008400000000000 0.9016800000000000 0.4378249999999999
0.3030700000000001 0.5576050000000001 0.4739399999999999
0.2897700000000000 0.5300650000000001 0.4677299999999999
0.2611350000000001 0.9727700000000000 0.4546399999999999
0.2468700000000000 0.9454750000000000 0.4484150000000000
0.3070900000000000 0.5152800000000000 0.4642600000000000
0.2928350000000001 0.9869150000000000 0.4587249999999999
0.2545350000000001 0.5576050000000001 0.4739399999999999
0.2402950000000000 0.5300650000000001 0.4677299999999999
0.2116350000000000 0.9727700000000000 0.4546399999999999
0.1986049999999999 0.9454750000000000 0.4484150000000000
0.2081900000000000 0.5152800000000000 0.4642600000000000
0.1940800000000000 0.9869150000000000 0.4587249999999999
0.4423950000000000 0.6969300000000000 0.4739399999999999
0.4699350000000000 0.7102299999999999 0.4677299999999999
0.0272300000000000 0.7388650000000000 0.4546399999999999
0.0545250000000000 0.7531300000000000 0.4484150000000000
0.4847200000000000 0.6929099999999999 0.4642600000000000
0.0130850000000000 0.7071650000000000 0.4587249999999999
0.3030700000000000 0.7454650000000000 0.4739399999999999
0.2897700000000000 0.7597050000000000 0.4677299999999999
0.2611350000000000 0.7883650000000000 0.4546399999999999
0.2468700000000001 0.8013950000000001 0.4484150000000000
0.3070900000000000 0.7918100000000000 0.4642600000000000
0.2928350000000000 0.8059200000000000 0.4587249999999999
0.0576050000000001 0.7545350000000000 0.0260600000000000
0.0300650000000001 0.7402949999999999 0.0322700000000000
0.4727700000000000 0.7116349999999999 0.0453600000000000
0.4454750000000000 0.6986049999999998 0.0515850000000000
0.0152800000000000 0.7081899999999999 0.0357400000000000
0.4869149999999999 0.6940799999999999 0.0412750000000000
0.2454650000000000 0.8030699999999998 0.0260600000000000
0.2597050000000000 0.7897700000000001 0.0322700000000000
0.2883650000000000 0.7611350000000000 0.0453600000000000
0.3013950000000000 0.7468700000000000 0.0515850000000000
0.2918100000000000 0.8070900000000000 0.0357400000000000
0.3059200000000000 0.7928350000000000 0.0412750000000000
0.1969300000000000 0.9423949999999999 0.0260600000000000
0.2102300000000000 0.9699350000000000 0.0322700000000000
0.2388650000000000 0.5272300000000000 0.0453600000000000
0.2531300000000000 0.5545249999999999 0.0515850000000000
0.1929100000000000 0.9847200000000000 0.0357400000000000
0.2071650000000000 0.5130850000000000 0.0412750000000000
0.2863783333333333 0.7136216666666665 0.2930366666666667
0.2855683333333333 0.7144316666666667 0.3048316666666666
0.2710933333333332 0.7289066666666665 0.3102266666666666
0.2425433333333333 0.7574566666666666 0.3091466666666666
0.2299183333333334 0.7700866666666666 0.3027116666666666
0.2163383333333332 0.7836616666666665 0.2834966666666666
0.2163283333333332 0.7836716666666665 0.2710316666666666
0.2311533333333333 0.7688466666666666 0.2659366666666666
0.2607183333333334 0.7392816666666665 0.2666666666666666
0.2734283333333334 0.7265716666666666 0.2732016666666666
0.2729183333333334 0.7270816666666665 0.2861116666666666
0.2582983333333333 0.7417016666666667 0.2917766666666666
0.2581833333333332 0.7418166666666666 0.3035216666666666
0.2298783333333332 0.7701216666666664 0.2902866666666666
0.2440983333333333 0.7559016666666666 0.2844966666666666
0.2448983333333333 0.7551016666666666 0.2725566666666666
0.2996583333333334 0.7003416666666666 0.3124666666666666
0.2022133333333333 0.7977866666666664 0.2638466666666666
0.0476233333333334 0.5952466666666667 0.1898166666666666
0.0748783333333335 0.6497566666666666 0.2022366666666666
0.0904383333333333 0.6808766666666667 0.2090816666666666
0.1173783333333334 0.7347566666666666 0.2218266666666666
0.0322933333333334 0.5645866666666667 0.1828216666666666
0.1324933333333334 0.7649866666666665 0.2288416666666666
0.0787983333333334 0.6090616666666666 0.1927266666666666
0.0930383333333334 0.6366016666666665 0.1989366666666666
0.1216983333333333 0.6938966666666665 0.2120266666666666
0.1347283333333333 0.7211916666666666 0.2182516666666666
0.1251433333333335 0.6513866666666666 0.2024066666666666
0.1392533333333333 0.6797516666666665 0.2079416666666666
0.2863783333333333 0.5727566666666665 0.2930366666666667
0.2855683333333333 0.5711366666666665 0.3048316666666666
0.2710933333333332 0.5421866666666666 0.3102266666666666
0.2425433333333334 0.9850866666666667 0.3091466666666666
0.2299133333333334 0.9598316666666667 0.3027116666666666
0.2163383333333333 0.9326766666666665 0.2834966666666666
0.2163283333333333 0.9326566666666665 0.2710316666666666
0.2311533333333333 0.9623066666666665 0.2659366666666666
0.2607183333333333 0.5214366666666665 0.2666666666666666
0.2734283333333333 0.5468566666666665 0.2732016666666666
0.2729183333333333 0.5458366666666666 0.2861116666666666
0.2582983333333333 0.5165966666666666 0.2917766666666666
0.2581833333333333 0.5163666666666665 0.3035216666666666
0.2298783333333333 0.9597566666666665 0.2902866666666666
0.2440983333333333 0.9881966666666665 0.2844966666666666
0.2448983333333333 0.9897966666666664 0.2725566666666666
0.2996583333333332 0.5993166666666665 0.3124666666666666
0.2022133333333333 0.9044266666666665 0.2638466666666666
0.4047533333333334 0.9523766666666666 0.1898166666666666
0.3502433333333334 0.9251216666666665 0.2022366666666666
0.3191233333333333 0.9095616666666664 0.2090816666666666
0.2652433333333333 0.8826216666666664 0.2218266666666666
0.4354133333333333 0.9677066666666666 0.1828216666666666
0.2350133333333333 0.8675066666666664 0.2288416666666666
0.3909383333333333 0.9697366666666667 0.1927266666666666
0.3633983333333333 0.9564366666666665 0.1989366666666666
0.3061033333333333 0.9278016666666664 0.2120266666666666
0.2788083333333333 0.9135366666666666 0.2182516666666666
0.3486133333333333 0.9737566666666666 0.2024066666666666
0.3202483333333333 0.9595016666666665 0.2079416666666666
0.4272433333333334 0.7136216666666666 0.2930366666666667
0.4288633333333333 0.7144316666666667 0.3048316666666666
0.4578133333333333 0.7289066666666667 0.3102266666666666
0.0149133333333333 0.7574566666666666 0.3091466666666666
0.0401683333333335 0.7700816666666668 0.3027116666666666
0.0673233333333334 0.7836616666666665 0.2834966666666666
0.0673433333333334 0.7836716666666665 0.2710316666666666
0.0376933333333334 0.7688466666666666 0.2659366666666666
0.4785633333333333 0.7392816666666665 0.2666666666666666
0.4531433333333333 0.7265716666666666 0.2732016666666666
0.4541633333333333 0.7270816666666665 0.2861116666666666
0.4834033333333334 0.7417016666666667 0.2917766666666666
0.4836333333333332 0.7418166666666666 0.3035216666666666
0.0402433333333335 0.7701216666666666 0.2902866666666666
0.0118033333333334 0.7559016666666666 0.2844966666666666
0.0102033333333334 0.7551016666666666 0.2725566666666666
0.4006833333333333 0.7003416666666666 0.3124666666666666
0.0955733333333333 0.7977866666666664 0.2638466666666666
0.0476233333333334 0.9523766666666666 0.1898166666666666
0.0748783333333335 0.9251216666666665 0.2022366666666666
0.0904383333333333 0.9095616666666665 0.2090816666666666
0.1173783333333332 0.8826216666666664 0.2218266666666666
0.0322933333333333 0.9677066666666666 0.1828216666666666
0.1324933333333334 0.8675066666666664 0.2288416666666666
0.0302633333333333 0.9212016666666667 0.1927266666666666
0.0435633333333333 0.9069616666666666 0.1989366666666666
0.0721983333333333 0.8783016666666665 0.2120266666666666
0.0864633333333333 0.8652716666666664 0.2182516666666666
0.0262433333333333 0.8748566666666665 0.2024066666666666
0.0404983333333333 0.8607466666666664 0.2079416666666666
0.3802883333333333 0.6197116666666667 0.0402966666666666
0.3810983333333333 0.6189016666666666 0.0285016666666666
0.3955733333333333 0.6044266666666666 0.0231066666666667
0.4241233333333332 0.5758766666666667 0.0241866666666667
0.4367533333333333 0.5632516666666667 0.0306216666666667
0.4503283333333333 0.5496716666666667 0.0498366666666666
0.4503383333333332 0.5496616666666666 0.0623016666666667
0.4355133333333333 0.5644866666666667 0.0673966666666666
0.4059483333333332 0.5940516666666665 0.0666666666666666
0.3932383333333332 0.6067616666666666 0.0601316666666666
0.3937483333333333 0.6062516666666665 0.0472216666666667
0.4083683333333333 0.5916316666666666 0.0415566666666667
0.4084833333333333 0.5915166666666667 0.0298116666666666
0.4367883333333333 0.5632116666666667 0.0430466666666667
0.4225683333333333 0.5774316666666667 0.0488366666666666
0.4217683333333332 0.5782316666666667 0.0607766666666667
0.3670083333333333 0.6329916666666666 0.0208666666666666
0.4644533333333332 0.5355466666666666 0.0694866666666666
0.2619133333333333 0.8809566666666665 0.1435166666666666
0.3164233333333332 0.9082116666666665 0.1310966666666666
0.3475433333333332 0.9237716666666665 0.1242516666666666
0.4014233333333332 0.9507116666666666 0.1115066666666666
0.2312533333333333 0.8656266666666667 0.1505116666666667
0.4316533333333332 0.9658266666666665 0.1044916666666666
0.2757283333333334 0.9121316666666667 0.1406066666666666
0.3032683333333332 0.9263716666666667 0.1343966666666666
0.3605633333333333 0.9550316666666665 0.1213066666666666
0.3878583333333332 0.9680616666666666 0.1150816666666667
0.3180533333333332 0.9584766666666665 0.1309266666666666
0.3464183333333332 0.9725866666666666 0.1253916666666666
0.3802883333333333 0.7605766666666666 0.0402966666666666
0.3810983333333333 0.7621966666666666 0.0285016666666666
0.3955733333333333 0.7911466666666667 0.0231066666666667
0.4241233333333333 0.8482466666666666 0.0241866666666667
0.4367483333333333 0.8735016666666665 0.0306216666666667
0.4503283333333333 0.9006566666666665 0.0498366666666666
0.4503383333333333 0.9006766666666667 0.0623016666666667
0.4355133333333333 0.8710266666666665 0.0673966666666666
0.4059483333333333 0.8118966666666666 0.0666666666666666
0.3932383333333332 0.7864766666666665 0.0601316666666666
0.3937483333333333 0.7874966666666666 0.0472216666666667
0.4083683333333333 0.8167366666666667 0.0415566666666667
0.4084833333333333 0.8169666666666665 0.0298116666666666
0.4367883333333333 0.8735766666666667 0.0430466666666667
0.4225683333333333 0.8451366666666666 0.0488366666666666
0.4217683333333334 0.8435366666666666 0.0607766666666667
0.3670083333333333 0.7340166666666667 0.0208666666666666
0.4644533333333333 0.9289066666666665 0.0694866666666666
0.1190433333333333 0.8809566666666665 0.1435166666666666
0.0917883333333333 0.9082116666666665 0.1310966666666666
0.0762283333333333 0.9237716666666665 0.1242516666666666
0.0492883333333333 0.9507116666666666 0.1115066666666666
0.1343733333333334 0.8656266666666667 0.1505116666666667
0.0341733333333333 0.9658266666666666 0.1044916666666666
0.0878683333333333 0.8635966666666667 0.1406066666666666
0.0736283333333333 0.8768966666666665 0.1343966666666666
0.0449683333333334 0.9055316666666666 0.1213066666666666
0.0319383333333333 0.9197966666666666 0.1150816666666667
0.0415233333333333 0.8595766666666667 0.1309266666666666
0.0274133333333333 0.8738316666666666 0.1253916666666666
0.2394233333333333 0.6197116666666667 0.0402966666666666
0.2378033333333333 0.6189016666666666 0.0285016666666666
0.2088533333333333 0.6044266666666666 0.0231066666666667
0.1517533333333334 0.5758766666666667 0.0241866666666667
0.1264983333333334 0.5632466666666667 0.0306216666666667
0.0993433333333334 0.5496716666666667 0.0498366666666666
0.0993233333333332 0.5496616666666667 0.0623016666666667
0.1289733333333334 0.5644866666666667 0.0673966666666666
0.1881033333333333 0.5940516666666665 0.0666666666666666
0.2135233333333332 0.6067616666666666 0.0601316666666666
0.2125033333333333 0.6062516666666665 0.0472216666666667
0.1832633333333334 0.5916316666666666 0.0415566666666667
0.1830333333333334 0.5915166666666667 0.0298116666666666
0.1264233333333333 0.5632116666666667 0.0430466666666667
0.1548633333333334 0.5774316666666667 0.0488366666666666
0.1564633333333333 0.5782316666666667 0.0607766666666667
0.2659833333333332 0.6329916666666666 0.0208666666666666
0.0710933333333333 0.5355466666666666 0.0694866666666666
0.1190433333333333 0.7380866666666667 0.1435166666666666
0.0917883333333333 0.6835766666666666 0.1310966666666666
0.0762283333333333 0.6524566666666666 0.1242516666666666
0.0492883333333333 0.5985766666666666 0.1115066666666666
0.1343733333333334 0.7687466666666667 0.1505116666666667
0.0341733333333333 0.5683466666666667 0.1044916666666666
0.1364033333333333 0.7242716666666665 0.1406066666666666
0.1231033333333333 0.6967316666666666 0.1343966666666666
0.0944683333333334 0.6394366666666667 0.1213066666666666
0.0802033333333334 0.6121416666666667 0.1150816666666667
0.1404233333333334 0.6819466666666667 0.1309266666666666
0.1261683333333333 0.6535816666666667 0.1253916666666666
0.0878683333333333 0.7242716666666665 0.1406066666666666
0.0736283333333333 0.6967316666666666 0.1343966666666666
0.0449683333333333 0.6394366666666667 0.1213066666666666
0.0319383333333333 0.6121416666666667 0.1150816666666667
0.0415233333333333 0.6819466666666667 0.1309266666666666
0.0274133333333333 0.6535816666666667 0.1253916666666666
0.2757283333333333 0.8635966666666667 0.1406066666666666
0.3032683333333332 0.8768966666666665 0.1343966666666666
0.3605633333333333 0.9055316666666666 0.1213066666666666
0.3878583333333332 0.9197966666666666 0.1150816666666667
0.3180533333333332 0.8595766666666667 0.1309266666666666
0.3464183333333333 0.8738316666666666 0.1253916666666666
0.1364033333333334 0.9121316666666667 0.1406066666666666
0.1231033333333333 0.9263716666666667 0.1343966666666666
0.0944683333333334 0.9550316666666665 0.1213066666666666
0.0802033333333334 0.9680616666666666 0.1150816666666667
0.1404233333333333 0.9584766666666665 0.1309266666666666
0.1261683333333333 0.9725866666666666 0.1253916666666666
0.3909383333333333 0.9212016666666667 0.1927266666666666
0.3633983333333333 0.9069616666666666 0.1989366666666666
0.3061033333333334 0.8783016666666665 0.2120266666666666
0.2788083333333333 0.8652716666666664 0.2182516666666666
0.3486133333333333 0.8748566666666665 0.2024066666666666
0.3202483333333332 0.8607466666666664 0.2079416666666666
0.0787983333333333 0.9697366666666667 0.1927266666666666
0.0930383333333333 0.9564366666666665 0.1989366666666666
0.1216983333333332 0.9278016666666664 0.2120266666666666
0.1347283333333333 0.9135366666666666 0.2182516666666666
0.1251433333333334 0.9737566666666666 0.2024066666666666
0.1392533333333333 0.9595016666666665 0.2079416666666666
0.0302633333333334 0.6090616666666666 0.1927266666666666
0.0435633333333333 0.6366016666666665 0.1989366666666666
0.0721983333333334 0.6938966666666665 0.2120266666666666
0.0864633333333333 0.7211916666666666 0.2182516666666666
0.0262433333333334 0.6513866666666666 0.2024066666666666
0.0404983333333333 0.6797516666666665 0.2079416666666666
0.1197116666666667 0.8802883333333335 0.4597033333333333
0.1189016666666668 0.8810983333333333 0.4714983333333333
0.1044266666666667 0.8955733333333333 0.4768933333333332
0.0758766666666667 0.9241233333333333 0.4758133333333332
0.0632516666666668 0.9367533333333333 0.4693783333333333
0.0496716666666668 0.9503283333333334 0.4501633333333332
0.0496616666666666 0.9503383333333333 0.4376983333333332
0.0644866666666667 0.9355133333333333 0.4326033333333333
0.0940516666666667 0.9059483333333334 0.4333333333333333
0.1067616666666667 0.8932383333333334 0.4398683333333333
0.1062516666666668 0.8937483333333334 0.4527783333333332
0.0916316666666667 0.9083683333333333 0.4584433333333333
0.0915166666666668 0.9084833333333334 0.4701883333333332
0.0632116666666667 0.9367883333333332 0.4569533333333333
0.0774316666666668 0.9225683333333333 0.4511633333333332
0.0782316666666667 0.9217683333333333 0.4392233333333332
0.1329916666666667 0.8670083333333334 0.4791333333333332
0.0355466666666667 0.9644533333333333 0.4305133333333332
0.3809566666666666 0.7619133333333333 0.3564833333333333
0.4082116666666666 0.8164233333333333 0.3689033333333332
0.4237716666666667 0.8475433333333333 0.3757483333333332
0.4507116666666666 0.9014233333333331 0.3884933333333332
0.3656266666666665 0.7312533333333332 0.3494883333333332
0.4658266666666666 0.9316533333333334 0.3955083333333332
0.4121316666666667 0.7757283333333334 0.3593933333333333
0.4263716666666667 0.8032683333333334 0.3656033333333333
0.4550316666666667 0.8605633333333335 0.3786933333333333
0.4680616666666667 0.8878583333333333 0.3849183333333333
0.4584766666666666 0.8180533333333333 0.3690733333333332
0.4725866666666667 0.8464183333333333 0.3746083333333333
0.1197116666666667 0.7394233333333333 0.4597033333333333
0.1189016666666667 0.7378033333333334 0.4714983333333333
0.1044266666666667 0.7088533333333333 0.4768933333333332
0.0758766666666667 0.6517533333333334 0.4758133333333332
0.0632466666666667 0.6264983333333334 0.4693783333333333
0.0496716666666667 0.5993433333333333 0.4501633333333332
0.0496616666666667 0.5993233333333332 0.4376983333333332
0.0644866666666666 0.6289733333333333 0.4326033333333333
0.0940516666666667 0.6881033333333332 0.4333333333333333
0.1067616666666666 0.7135233333333332 0.4398683333333333
0.1062516666666667 0.7125033333333333 0.4527783333333332
0.0916316666666667 0.6832633333333333 0.4584433333333333
0.0915166666666668 0.6830333333333334 0.4701883333333332
0.0632116666666667 0.6264233333333333 0.4569533333333333
0.0774316666666667 0.6548633333333334 0.4511633333333332
0.0782316666666667 0.6564633333333334 0.4392233333333332
0.1329916666666667 0.7659833333333332 0.4791333333333332
0.0355466666666667 0.5710933333333333 0.4305133333333332
0.2380866666666667 0.6190433333333333 0.3564833333333333
0.1835766666666666 0.5917883333333334 0.3689033333333332
0.1524566666666667 0.5762283333333332 0.3757483333333332
0.0985766666666666 0.5492883333333334 0.3884933333333332
0.2687466666666667 0.6343733333333332 0.3494883333333332
0.0683466666666667 0.5341733333333333 0.3955083333333332
0.2242716666666666 0.6364033333333332 0.3593933333333333
0.1967316666666666 0.6231033333333332 0.3656033333333333
0.1394366666666667 0.5944683333333334 0.3786933333333333
0.1121416666666667 0.5802033333333333 0.3849183333333333
0.1819466666666667 0.6404233333333333 0.3690733333333332
0.1535816666666667 0.6261683333333332 0.3746083333333333
0.2605766666666667 0.8802883333333335 0.4597033333333333
0.2621966666666667 0.8810983333333333 0.4714983333333333
0.2911466666666667 0.8955733333333333 0.4768933333333332
0.3482466666666666 0.9241233333333333 0.4758133333333332
0.3735016666666666 0.9367483333333333 0.4693783333333333
0.4006566666666667 0.9503283333333334 0.4501633333333332
0.4006766666666666 0.9503383333333333 0.4376983333333332
0.3710266666666666 0.9355133333333333 0.4326033333333333
0.3118966666666665 0.9059483333333334 0.4333333333333333
0.2864766666666666 0.8932383333333334 0.4398683333333333
0.2874966666666667 0.8937483333333334 0.4527783333333332
0.3167366666666667 0.9083683333333333 0.4584433333333333
0.3169666666666667 0.9084833333333334 0.4701883333333332
0.3735766666666667 0.9367883333333332 0.4569533333333333
0.3451366666666668 0.9225683333333333 0.4511633333333332
0.3435366666666666 0.9217683333333333 0.4392233333333332
0.2340166666666667 0.8670083333333334 0.4791333333333332
0.4289066666666667 0.9644533333333333 0.4305133333333332
0.3809566666666666 0.6190433333333333 0.3564833333333333
0.4082116666666666 0.5917883333333334 0.3689033333333332
0.4237716666666666 0.5762283333333332 0.3757483333333332
0.4507116666666666 0.5492883333333334 0.3884933333333332
0.3656266666666666 0.6343733333333332 0.3494883333333332
0.4658266666666667 0.5341733333333333 0.3955083333333332
0.3635966666666666 0.5878683333333332 0.3593933333333333
0.3768966666666666 0.5736283333333332 0.3656033333333333
0.4055316666666666 0.5449683333333332 0.3786933333333333
0.4197966666666665 0.5319383333333332 0.3849183333333333
0.3595766666666666 0.5415233333333334 0.3690733333333332
0.3738316666666666 0.5274133333333332 0.3746083333333333
0.2136216666666667 0.7863783333333332 0.2069633333333333
0.2144316666666666 0.7855683333333333 0.1951683333333333
0.2289066666666666 0.7710933333333333 0.1897733333333333
0.2574566666666667 0.7425433333333333 0.1908533333333333
0.2700866666666666 0.7299183333333334 0.1972883333333333
0.2836616666666667 0.7163383333333333 0.2165033333333333
0.2836716666666667 0.7163283333333331 0.2289683333333333
0.2688466666666667 0.7311533333333333 0.2340633333333333
0.2392816666666666 0.7607183333333333 0.2333333333333333
0.2265716666666666 0.7734283333333332 0.2267983333333333
0.2270816666666666 0.7729183333333332 0.2138883333333333
0.2417016666666666 0.7582983333333331 0.2082233333333333
0.2418166666666667 0.7581833333333333 0.1964783333333333
0.2701216666666666 0.7298783333333332 0.2097133333333333
0.2559016666666667 0.7440983333333333 0.2155033333333333
0.2551016666666666 0.7448983333333332 0.2274433333333333
0.2003416666666666 0.7996583333333332 0.1875333333333333
0.2977866666666666 0.7022133333333332 0.2361533333333333
0.0952466666666667 0.5476233333333334 0.3101833333333333
0.1497566666666666 0.5748783333333334 0.2977633333333333
0.1808766666666667 0.5904383333333333 0.2909183333333333
0.2347566666666667 0.6173783333333334 0.2781733333333333
0.0645866666666667 0.5322933333333333 0.3171783333333333
0.2649866666666667 0.6324933333333332 0.2711583333333333
0.1090616666666666 0.5787983333333332 0.3072733333333332
0.1366016666666666 0.5930383333333333 0.3010633333333332
0.1938966666666666 0.6216983333333331 0.2879733333333332
0.2211916666666666 0.6347283333333332 0.2817483333333333
0.1513866666666667 0.6251433333333334 0.2975933333333333
0.1797516666666666 0.6392533333333333 0.2920583333333333
0.2136216666666667 0.9272433333333332 0.2069633333333333
0.2144316666666667 0.9288633333333334 0.1951683333333333
0.2289066666666667 0.9578133333333334 0.1897733333333333
0.2574566666666667 0.5149133333333334 0.1908533333333333
0.2700816666666667 0.5401683333333335 0.1972883333333333
0.2836616666666667 0.5673233333333334 0.2165033333333333
0.2836716666666667 0.5673433333333333 0.2289683333333333
0.2688466666666667 0.5376933333333334 0.2340633333333333
0.2392816666666666 0.9785633333333330 0.2333333333333333
0.2265716666666667 0.9531433333333331 0.2267983333333333
0.2270816666666665 0.9541633333333330 0.2138883333333333
0.2417016666666667 0.9834033333333333 0.2082233333333333
0.2418166666666666 0.9836333333333332 0.1964783333333333
0.2701216666666667 0.5402433333333333 0.2097133333333333
0.2559016666666667 0.5118033333333333 0.2155033333333333
0.2551016666666667 0.5102033333333333 0.2274433333333333
0.2003416666666666 0.9006833333333333 0.1875333333333333
0.2977866666666666 0.5955733333333332 0.2361533333333333
0.4523766666666666 0.5476233333333334 0.3101833333333333
0.4251216666666666 0.5748783333333334 0.2977633333333333
0.4095616666666667 0.5904383333333333 0.2909183333333333
0.3826216666666666 0.6173783333333334 0.2781733333333333
0.4677066666666666 0.5322933333333333 0.3171783333333333
0.3675066666666666 0.6324933333333332 0.2711583333333333
0.4212016666666666 0.5302633333333333 0.3072733333333332
0.4069616666666666 0.5435633333333333 0.3010633333333332
0.3783016666666666 0.5721983333333334 0.2879733333333332
0.3652716666666667 0.5864633333333332 0.2817483333333333
0.3748566666666665 0.5262433333333332 0.2975933333333333
0.3607466666666667 0.5404983333333333 0.2920583333333333
0.0727566666666666 0.7863783333333332 0.2069633333333333
0.0711366666666666 0.7855683333333333 0.1951683333333333
0.0421866666666666 0.7710933333333333 0.1897733333333333
0.4850866666666666 0.7425433333333333 0.1908533333333333
0.4598316666666667 0.7299133333333334 0.1972883333333333
0.4326766666666666 0.7163383333333333 0.2165033333333333
0.4326566666666666 0.7163283333333333 0.2289683333333333
0.4623066666666666 0.7311533333333333 0.2340633333333333
0.0214366666666667 0.7607183333333333 0.2333333333333333
0.0468566666666666 0.7734283333333332 0.2267983333333333
0.0458366666666666 0.7729183333333332 0.2138883333333333
0.0165966666666666 0.7582983333333331 0.2082233333333333
0.0163666666666667 0.7581833333333333 0.1964783333333333
0.4597566666666665 0.7298783333333332 0.2097133333333333
0.4881966666666667 0.7440983333333333 0.2155033333333333
0.4897966666666666 0.7448983333333332 0.2274433333333333
0.0993166666666666 0.7996583333333332 0.1875333333333333
0.4044266666666666 0.7022133333333332 0.2361533333333333
0.4523766666666666 0.9047533333333333 0.3101833333333333
0.4251216666666666 0.8502433333333332 0.2977633333333333
0.4095616666666666 0.8191233333333332 0.2909183333333333
0.3826216666666665 0.7652433333333331 0.2781733333333333
0.4677066666666666 0.9354133333333332 0.3171783333333333
0.3675066666666666 0.7350133333333333 0.2711583333333333
0.4697366666666667 0.8909383333333334 0.3072733333333332
0.4564366666666667 0.8633983333333333 0.3010633333333332
0.4278016666666666 0.8061033333333333 0.2879733333333332
0.4135366666666666 0.7788083333333331 0.2817483333333333
0.4737566666666667 0.8486133333333334 0.2975933333333333
0.4595016666666667 0.8202483333333331 0.2920583333333333
0.4212016666666667 0.8909383333333334 0.3072733333333332
0.4069616666666667 0.8633983333333333 0.3010633333333332
0.3783016666666666 0.8061033333333333 0.2879733333333332
0.3652716666666666 0.7788083333333331 0.2817483333333333
0.3748566666666666 0.8486133333333334 0.2975933333333333
0.3607466666666667 0.8202483333333331 0.2920583333333333
0.1090616666666666 0.5302633333333333 0.3072733333333332
0.1366016666666666 0.5435633333333333 0.3010633333333332
0.1938966666666666 0.5721983333333334 0.2879733333333332
0.2211916666666666 0.5864633333333332 0.2817483333333333
0.1513866666666667 0.5262433333333332 0.2975933333333333
0.1797516666666666 0.5404983333333333 0.2920583333333333
0.4697366666666666 0.5787983333333332 0.3072733333333332
0.4564366666666666 0.5930383333333333 0.3010633333333332
0.4278016666666666 0.6216983333333331 0.2879733333333332
0.4135366666666666 0.6347283333333332 0.2817483333333333
0.4737566666666667 0.6251433333333334 0.2975933333333333
0.4595016666666667 0.6392533333333333 0.2920583333333333
0.2242716666666666 0.5878683333333332 0.3593933333333333
0.1967316666666666 0.5736283333333332 0.3656033333333333
0.1394366666666667 0.5449683333333332 0.3786933333333333
0.1121416666666667 0.5319383333333332 0.3849183333333333
0.1819466666666667 0.5415233333333334 0.3690733333333332
0.1535816666666667 0.5274133333333332 0.3746083333333333
0.4121316666666666 0.6364033333333332 0.3593933333333333
0.4263716666666666 0.6231033333333332 0.3656033333333333
0.4550316666666666 0.5944683333333334 0.3786933333333333
0.4680616666666667 0.5802033333333333 0.3849183333333333
0.4584766666666666 0.6404233333333333 0.3690733333333332
0.4725866666666667 0.6261683333333332 0.3746083333333333
0.3635966666666667 0.7757283333333334 0.3593933333333333
0.3768966666666667 0.8032683333333334 0.3656033333333333
0.4055316666666667 0.8605633333333335 0.3786933333333333
0.4197966666666666 0.8878583333333333 0.3849183333333333
0.3595766666666667 0.8180533333333333 0.3690733333333332
0.3738316666666667 0.8464183333333333 0.3746083333333333
0.4530449999999999 0.5469549999999999 0.6263699999999999
0.4522349999999999 0.5477649999999999 0.6381650000000000
0.4377599999999999 0.5622399999999999 0.6435599999999999
0.4092100000000000 0.5907899999999999 0.6424799999999998
0.3965850000000000 0.6034199999999998 0.6360449999999999
0.3830049999999999 0.6169949999999998 0.6168299999999999
0.3829950000000000 0.6170049999999999 0.6043649999999999
0.3978200000000000 0.6021800000000000 0.5992699999999999
0.4273849999999999 0.5726149999999999 0.5999999999999999
0.4400950000000000 0.5599049999999999 0.6065349999999999
0.4395850000000000 0.5604150000000000 0.6194449999999999
0.4249649999999999 0.5750349999999999 0.6251099999999999
0.4248499999999999 0.5751499999999999 0.6368549999999998
0.3965450000000000 0.6034549999999999 0.6236199999999998
0.4107650000000000 0.5892349999999998 0.6178299999999999
0.4115650000000000 0.5884349999999999 0.6058899999999999
0.4663250000000000 0.5336749999999999 0.6457999999999999
0.3688800000000000 0.6311199999999999 0.5971799999999999
0.2142900000000000 0.9285800000000000 0.5231499999999999
0.2415450000000000 0.9830899999999999 0.5355699999999999
0.2571049999999999 0.5142100000000001 0.5424149999999999
0.2840450000000000 0.5680900000000000 0.5551599999999999
0.1989600000000000 0.8979200000000001 0.5161549999999999
0.2991599999999999 0.5983200000000000 0.5621749999999999
0.2454650000000000 0.9423950000000000 0.5260599999999999
0.2597050000000001 0.9699350000000000 0.5322699999999999
0.2883650000000000 0.5272300000000000 0.5453599999999998
0.3013950000000000 0.5545250000000000 0.5515849999999999
0.2918100000000000 0.9847200000000000 0.5357399999999999
0.3059200000000000 0.5130850000000001 0.5412749999999998
0.4530450000000000 0.9060899999999998 0.6263699999999999
0.4522349999999999 0.9044699999999999 0.6381650000000000
0.4377599999999999 0.8755199999999999 0.6435599999999999
0.4092100000000000 0.8184200000000000 0.6424799999999998
0.3965800000000000 0.7931649999999999 0.6360449999999999
0.3830050000000000 0.7660099999999999 0.6168299999999999
0.3829949999999999 0.7659899999999998 0.6043649999999999
0.3978200000000000 0.7956399999999999 0.5992699999999999
0.4273850000000000 0.8547700000000000 0.5999999999999999
0.4400950000000000 0.8801899999999999 0.6065349999999999
0.4395849999999999 0.8791699999999998 0.6194449999999999
0.4249650000000000 0.8499299999999999 0.6251099999999999
0.4248499999999999 0.8496999999999999 0.6368549999999998
0.3965450000000000 0.7930900000000000 0.6236199999999998
0.4107649999999999 0.8215299999999999 0.6178299999999999
0.4115650000000000 0.8231300000000000 0.6058899999999999
0.4663249999999999 0.9326499999999999 0.6457999999999999
0.3688799999999999 0.7377599999999999 0.5971799999999999
0.0714200000000000 0.7857100000000000 0.5231499999999999
0.0169100000000000 0.7584550000000000 0.5355699999999999
0.4857899999999999 0.7428950000000000 0.5424149999999999
0.4319100000000000 0.7159550000000000 0.5551599999999999
0.1020800000000000 0.8010400000000000 0.5161549999999999
0.4016800000000000 0.7008399999999999 0.5621749999999999
0.0576050000000000 0.8030699999999998 0.5260599999999999
0.0300650000000000 0.7897700000000001 0.5322699999999999
0.4727700000000000 0.7611350000000000 0.5453599999999998
0.4454750000000000 0.7468700000000001 0.5515849999999999
0.0152800000000000 0.8070900000000000 0.5357399999999999
0.4869149999999999 0.7928350000000000 0.5412749999999998
0.0939100000000000 0.5469550000000001 0.6263699999999999
0.0955300000000000 0.5477649999999999 0.6381650000000000
0.1244800000000000 0.5622400000000000 0.6435599999999999
0.1815800000000000 0.5907899999999998 0.6424799999999998
0.2068350000000000 0.6034149999999999 0.6360449999999999
0.2339900000000000 0.6169949999999998 0.6168299999999999
0.2340100000000001 0.6170049999999999 0.6043649999999999
0.2043600000000000 0.6021799999999998 0.5992699999999999
0.1452299999999999 0.5726149999999999 0.5999999999999999
0.1198100000000000 0.5599049999999999 0.6065349999999999
0.1208300000000000 0.5604150000000000 0.6194449999999999
0.1500700000000000 0.5750349999999999 0.6251099999999999
0.1503000000000000 0.5751499999999999 0.6368549999999998
0.2069100000000000 0.6034550000000000 0.6236199999999998
0.1784700000000000 0.5892349999999998 0.6178299999999999
0.1768700000000000 0.5884349999999999 0.6058899999999999
0.0673500000000001 0.5336749999999999 0.6457999999999999
0.2622400000000001 0.6311199999999999 0.5971799999999999
0.2142900000000000 0.7857100000000000 0.5231499999999999
0.2415450000000000 0.7584550000000000 0.5355699999999999
0.2571050000000000 0.7428950000000001 0.5424149999999999
0.2840450000000000 0.7159550000000000 0.5551599999999999
0.1989600000000000 0.8010400000000000 0.5161549999999999
0.2991600000000000 0.7008400000000000 0.5621749999999999
0.1969300000000001 0.7545350000000001 0.5260599999999999
0.2102300000000000 0.7402949999999999 0.5322699999999999
0.2388650000000000 0.7116350000000000 0.5453599999999998
0.2531299999999999 0.6986049999999999 0.5515849999999999
0.1929100000000000 0.7081900000000000 0.5357399999999999
0.2071650000000000 0.6940800000000000 0.5412749999999998
0.0469550000000000 0.9530449999999998 0.8736299999999999
0.0477650000000001 0.9522349999999998 0.8618349999999999
0.0622400000000000 0.9377599999999998 0.8564399999999998
0.0907900000000000 0.9092100000000001 0.8575199999999998
0.1034200000000001 0.8965849999999999 0.8639549999999998
0.1169950000000001 0.8830049999999999 0.8831699999999999
0.1170050000000001 0.8829950000000001 0.8956349999999997
0.1021800000000001 0.8978200000000001 0.9007299999999999
0.0726150000000000 0.9273850000000000 0.8999999999999999
0.0599050000000001 0.9400950000000001 0.8934649999999997
0.0604150000000001 0.9395849999999999 0.8805549999999998
0.0750350000000000 0.9249649999999999 0.8748899999999997
0.0751500000000000 0.9248499999999998 0.8631449999999998
0.1034550000000000 0.8965449999999997 0.8763799999999998
0.0892350000000000 0.9107650000000000 0.8821699999999999
0.0884350000000002 0.9115650000000001 0.8941099999999998
0.0336750000000000 0.9663250000000000 0.8541999999999997
0.1311200000000001 0.8688800000000000 0.9028199999999998
0.4285800000000000 0.7142900000000000 0.9768499999999999
0.4830900000000000 0.7415450000000000 0.9644299999999998
0.0142100000000000 0.7571049999999999 0.9575849999999998
0.0680900000000000 0.7840450000000000 0.9448399999999999
0.3979199999999999 0.6989600000000000 0.9838449999999999
0.0983200000000001 0.7991600000000001 0.9378249999999998
0.4423949999999999 0.7454650000000000 0.9739399999999999
0.4699349999999999 0.7597050000000001 0.9677299999999999
0.0272300000000001 0.7883650000000001 0.9546399999999997
0.0545250000000001 0.8013950000000002 0.9484149999999998
0.4847200000000000 0.7918100000000001 0.9642599999999999
0.0130850000000000 0.8059200000000000 0.9587249999999999
0.0469550000000000 0.5939100000000000 0.8736299999999999
0.0477650000000000 0.5955300000000000 0.8618349999999999
0.0622400000000000 0.6244800000000000 0.8564399999999998
0.0907900000000000 0.6815800000000000 0.8575199999999998
0.1034150000000000 0.7068350000000000 0.8639549999999998
0.1169950000000000 0.7339900000000000 0.8831699999999999
0.1170050000000001 0.7340100000000001 0.8956349999999997
0.1021800000000000 0.7043600000000000 0.9007299999999999
0.0726150000000000 0.6452300000000000 0.8999999999999999
0.0599050000000000 0.6198100000000000 0.8934649999999997
0.0604150000000000 0.6208300000000000 0.8805549999999998
0.0750350000000000 0.6500700000000000 0.8748899999999997
0.0751500000000000 0.6503000000000000 0.8631449999999998
0.1034550000000001 0.7069100000000000 0.8763799999999998
0.0892350000000000 0.6784700000000000 0.8821699999999999
0.0884350000000000 0.6768700000000000 0.8941099999999998
0.0336750000000001 0.5673500000000000 0.8541999999999997
0.1311200000000002 0.7622400000000001 0.9028199999999998
0.2857100000000000 0.7142900000000000 0.9768499999999999
0.2584550000000000 0.7415450000000000 0.9644299999999998
0.2428950000000001 0.7571050000000001 0.9575849999999998
0.2159550000000000 0.7840450000000000 0.9448399999999999
0.3010399999999999 0.6989600000000000 0.9838449999999999
0.2008400000000001 0.7991600000000002 0.9378249999999998
0.2545350000000000 0.6969300000000000 0.9739399999999999
0.2402950000000000 0.7102299999999999 0.9677299999999999
0.2116350000000000 0.7388650000000000 0.9546399999999997
0.1986050000000000 0.7531300000000000 0.9484149999999998
0.2081900000000000 0.6929099999999999 0.9642599999999999
0.1940800000000000 0.7071650000000000 0.9587249999999999
0.4060900000000000 0.9530449999999999 0.8736299999999999
0.4044699999999999 0.9522349999999998 0.8618349999999999
0.3755199999999999 0.9377599999999998 0.8564399999999998
0.3184200000000000 0.9092100000000001 0.8575199999999998
0.2931650000000000 0.8965799999999999 0.8639549999999998
0.2660100000000000 0.8830049999999999 0.8831699999999999
0.2659900000000000 0.8829950000000001 0.8956349999999997
0.2956400000000001 0.8978200000000001 0.9007299999999999
0.3547700000000000 0.9273850000000000 0.8999999999999999
0.3801900000000001 0.9400950000000001 0.8934649999999997
0.3791700000000000 0.9395849999999999 0.8805549999999998
0.3499299999999999 0.9249649999999999 0.8748899999999997
0.3497000000000000 0.9248499999999998 0.8631449999999998
0.2930900000000000 0.8965449999999997 0.8763799999999998
0.3215300000000000 0.9107650000000000 0.8821699999999999
0.3231300000000001 0.9115650000000001 0.8941099999999998
0.4326500000000000 0.9663250000000000 0.8541999999999997
0.2377600000000001 0.8688800000000000 0.9028199999999998
0.2857100000000000 0.5714200000000000 0.9768499999999999
0.2584549999999999 0.5169100000000000 0.9644299999999998
0.2428950000000000 0.9857899999999999 0.9575849999999998
0.2159550000000000 0.9319100000000000 0.9448399999999999
0.3010400000000000 0.6020799999999999 0.9838449999999999
0.2008400000000000 0.9016800000000001 0.9378249999999998
0.3030700000000000 0.5576050000000000 0.9739399999999999
0.2897700000000000 0.5300650000000000 0.9677299999999999
0.2611350000000001 0.9727700000000001 0.9546399999999997
0.2468700000000000 0.9454750000000001 0.9484149999999998
0.3070900000000000 0.5152800000000000 0.9642599999999999
0.2928350000000000 0.9869150000000001 0.9587249999999999
0.2545350000000000 0.5576050000000000 0.9739399999999999
0.2402950000000000 0.5300650000000000 0.9677299999999999
0.2116350000000001 0.9727700000000001 0.9546399999999997
0.1986049999999999 0.9454750000000001 0.9484149999999998
0.2081900000000000 0.5152800000000000 0.9642599999999999
0.1940800000000000 0.9869150000000001 0.9587249999999999
0.4423949999999999 0.6969300000000000 0.9739399999999999
0.4699349999999999 0.7102299999999999 0.9677299999999999
0.0272300000000000 0.7388650000000000 0.9546399999999997
0.0545250000000000 0.7531300000000000 0.9484149999999998
0.4847199999999999 0.6929099999999999 0.9642599999999999
0.0130850000000000 0.7071650000000000 0.9587249999999999
0.3030700000000000 0.7454650000000000 0.9739399999999999
0.2897700000000000 0.7597050000000001 0.9677299999999999
0.2611350000000000 0.7883650000000001 0.9546399999999997
0.2468700000000001 0.8013950000000002 0.9484149999999998
0.3070900000000001 0.7918100000000001 0.9642599999999999
0.2928350000000000 0.8059200000000000 0.9587249999999999
0.0576050000000001 0.7545350000000001 0.5260599999999999
0.0300650000000001 0.7402949999999999 0.5322699999999999
0.4727700000000000 0.7116350000000000 0.5453599999999998
0.4454749999999999 0.6986049999999999 0.5515849999999999
0.0152800000000000 0.7081900000000000 0.5357399999999999
0.4869149999999999 0.6940800000000000 0.5412749999999998
0.2454650000000000 0.8030699999999998 0.5260599999999999
0.2597050000000000 0.7897700000000001 0.5322699999999999
0.2883650000000000 0.7611350000000000 0.5453599999999998
0.3013950000000001 0.7468700000000001 0.5515849999999999
0.2918100000000000 0.8070900000000000 0.5357399999999999
0.3059200000000000 0.7928350000000000 0.5412749999999998
0.1969300000000000 0.9423950000000000 0.5260599999999999
0.2102300000000000 0.9699350000000000 0.5322699999999999
0.2388650000000000 0.5272300000000000 0.5453599999999998
0.2531299999999999 0.5545250000000000 0.5515849999999999
0.1929099999999999 0.9847200000000000 0.5357399999999999
0.2071650000000000 0.5130850000000001 0.5412749999999998
0.2863783333333333 0.7136216666666666 0.7930366666666664
0.2855683333333334 0.7144316666666667 0.8048316666666665
0.2710933333333333 0.7289066666666666 0.8102266666666665
0.2425433333333332 0.7574566666666664 0.8091466666666666
0.2299183333333333 0.7700866666666665 0.8027116666666666
0.2163383333333333 0.7836616666666666 0.7834966666666665
0.2163283333333332 0.7836716666666667 0.7710316666666666
0.2311533333333333 0.7688466666666667 0.7659366666666666
0.2607183333333334 0.7392816666666666 0.7666666666666664
0.2734283333333334 0.7265716666666666 0.7732016666666666
0.2729183333333334 0.7270816666666666 0.7861116666666665
0.2582983333333333 0.7417016666666667 0.7917766666666666
0.2581833333333333 0.7418166666666667 0.8035216666666666
0.2298783333333332 0.7701216666666665 0.7902866666666664
0.2440983333333333 0.7559016666666667 0.7844966666666665
0.2448983333333333 0.7551016666666666 0.7725566666666666
0.2996583333333334 0.7003416666666666 0.8124666666666666
0.2022133333333333 0.7977866666666665 0.7638466666666665
0.0476233333333334 0.5952466666666666 0.6898166666666664
0.0748783333333335 0.6497566666666665 0.7022366666666665
0.0904383333333333 0.6808766666666666 0.7090816666666665
0.1173783333333334 0.7347566666666666 0.7218266666666665
0.0322933333333333 0.5645866666666666 0.6828216666666665
0.1324933333333334 0.7649866666666666 0.7288416666666665
0.0787983333333333 0.6090616666666665 0.6927266666666666
0.0930383333333333 0.6366016666666665 0.6989366666666664
0.1216983333333332 0.6938966666666665 0.7120266666666665
0.1347283333333333 0.7211916666666666 0.7182516666666665
0.1251433333333334 0.6513866666666666 0.7024066666666665
0.1392533333333333 0.6797516666666665 0.7079416666666666
0.2863783333333333 0.5727566666666666 0.7930366666666664
0.2855683333333333 0.5711366666666666 0.8048316666666665
0.2710933333333333 0.5421866666666666 0.8102266666666665
0.2425433333333333 0.9850866666666666 0.8091466666666666
0.2299133333333333 0.9598316666666666 0.8027116666666666
0.2163383333333333 0.9326766666666666 0.7834966666666665
0.2163283333333333 0.9326566666666665 0.7710316666666666
0.2311533333333333 0.9623066666666666 0.7659366666666666
0.2607183333333333 0.5214366666666667 0.7666666666666664
0.2734283333333333 0.5468566666666667 0.7732016666666666
0.2729183333333333 0.5458366666666666 0.7861116666666665
0.2582983333333333 0.5165966666666666 0.7917766666666666
0.2581833333333333 0.5163666666666666 0.8035216666666666
0.2298783333333334 0.9597566666666665 0.7902866666666664
0.2440983333333333 0.9881966666666665 0.7844966666666665
0.2448983333333333 0.9897966666666665 0.7725566666666666
0.2996583333333333 0.5993166666666666 0.8124666666666666
0.2022133333333333 0.9044266666666666 0.7638466666666665
0.4047533333333334 0.9523766666666666 0.6898166666666664
0.3502433333333333 0.9251216666666666 0.7022366666666665
0.3191233333333333 0.9095616666666664 0.7090816666666665
0.2652433333333333 0.8826216666666665 0.7218266666666665
0.4354133333333333 0.9677066666666666 0.6828216666666665
0.2350133333333333 0.8675066666666664 0.7288416666666665
0.3909383333333333 0.9697366666666667 0.6927266666666666
0.3633983333333333 0.9564366666666666 0.6989366666666664
0.3061033333333333 0.9278016666666665 0.7120266666666665
0.2788083333333333 0.9135366666666666 0.7182516666666665
0.3486133333333333 0.9737566666666666 0.7024066666666665
0.3202483333333332 0.9595016666666666 0.7079416666666666
0.4272433333333334 0.7136216666666667 0.7930366666666664
0.4288633333333333 0.7144316666666667 0.8048316666666665
0.4578133333333333 0.7289066666666667 0.8102266666666665
0.0149133333333333 0.7574566666666664 0.8091466666666666
0.0401683333333334 0.7700816666666667 0.8027116666666666
0.0673233333333334 0.7836616666666666 0.7834966666666665
0.0673433333333334 0.7836716666666667 0.7710316666666666
0.0376933333333333 0.7688466666666667 0.7659366666666666
0.4785633333333333 0.7392816666666666 0.7666666666666664
0.4531433333333333 0.7265716666666666 0.7732016666666666
0.4541633333333333 0.7270816666666666 0.7861116666666665
0.4834033333333333 0.7417016666666667 0.7917766666666666
0.4836333333333332 0.7418166666666667 0.8035216666666666
0.0402433333333334 0.7701216666666666 0.7902866666666664
0.0118033333333334 0.7559016666666667 0.7844966666666665
0.0102033333333334 0.7551016666666666 0.7725566666666666
0.4006833333333333 0.7003416666666666 0.8124666666666666
0.0955733333333333 0.7977866666666665 0.7638466666666665
0.0476233333333334 0.9523766666666666 0.6898166666666664
0.0748783333333335 0.9251216666666666 0.7022366666666665
0.0904383333333333 0.9095616666666666 0.7090816666666665
0.1173783333333332 0.8826216666666665 0.7218266666666665
0.0322933333333333 0.9677066666666666 0.6828216666666665
0.1324933333333334 0.8675066666666664 0.7288416666666665
0.0302633333333333 0.9212016666666666 0.6927266666666666
0.0435633333333333 0.9069616666666667 0.6989366666666664
0.0721983333333333 0.8783016666666666 0.7120266666666665
0.0864633333333333 0.8652716666666666 0.7182516666666665
0.0262433333333333 0.8748566666666666 0.7024066666666665
0.0404983333333333 0.8607466666666665 0.7079416666666666
0.3802883333333333 0.6197116666666667 0.5402966666666665
0.3810983333333333 0.6189016666666667 0.5285016666666665
0.3955733333333332 0.6044266666666667 0.5231066666666665
0.4241233333333332 0.5758766666666667 0.5241866666666666
0.4367533333333333 0.5632516666666667 0.5306216666666665
0.4503283333333333 0.5496716666666667 0.5498366666666665
0.4503383333333332 0.5496616666666666 0.5623016666666666
0.4355133333333333 0.5644866666666667 0.5673966666666665
0.4059483333333332 0.5940516666666666 0.5666666666666665
0.3932383333333332 0.6067616666666666 0.5601316666666666
0.3937483333333333 0.6062516666666666 0.5472216666666666
0.4083683333333333 0.5916316666666667 0.5415566666666666
0.4084833333333333 0.5915166666666667 0.5298116666666666
0.4367883333333333 0.5632116666666667 0.5430466666666666
0.4225683333333333 0.5774316666666667 0.5488366666666665
0.4217683333333332 0.5782316666666667 0.5607766666666666
0.3670083333333333 0.6329916666666666 0.5208666666666665
0.4644533333333332 0.5355466666666666 0.5694866666666667
0.2619133333333333 0.8809566666666665 0.6435166666666665
0.3164233333333333 0.9082116666666665 0.6310966666666665
0.3475433333333333 0.9237716666666664 0.6242516666666665
0.4014233333333333 0.9507116666666665 0.6115066666666665
0.2312533333333333 0.8656266666666667 0.6505116666666665
0.4316533333333333 0.9658266666666664 0.6044916666666665
0.2757283333333335 0.9121316666666666 0.6406066666666665
0.3032683333333333 0.9263716666666666 0.6343966666666665
0.3605633333333333 0.9550316666666665 0.6213066666666666
0.3878583333333333 0.9680616666666666 0.6150816666666666
0.3180533333333332 0.9584766666666665 0.6309266666666665
0.3464183333333333 0.9725866666666665 0.6253916666666666
0.3802883333333333 0.7605766666666667 0.5402966666666665
0.3810983333333333 0.7621966666666667 0.5285016666666665
0.3955733333333334 0.7911466666666668 0.5231066666666665
0.4241233333333333 0.8482466666666666 0.5241866666666666
0.4367483333333332 0.8735016666666666 0.5306216666666665
0.4503283333333332 0.9006566666666667 0.5498366666666665
0.4503383333333333 0.9006766666666667 0.5623016666666666
0.4355133333333332 0.8710266666666666 0.5673966666666665
0.4059483333333332 0.8118966666666666 0.5666666666666665
0.3932383333333332 0.7864766666666666 0.5601316666666666
0.3937483333333333 0.7874966666666666 0.5472216666666666
0.4083683333333333 0.8167366666666668 0.5415566666666666
0.4084833333333333 0.8169666666666666 0.5298116666666666
0.4367883333333333 0.8735766666666667 0.5430466666666666
0.4225683333333333 0.8451366666666666 0.5488366666666665
0.4217683333333333 0.8435366666666667 0.5607766666666666
0.3670083333333333 0.7340166666666667 0.5208666666666665
0.4644533333333333 0.9289066666666667 0.5694866666666667
0.1190433333333333 0.8809566666666665 0.6435166666666665
0.0917883333333333 0.9082116666666665 0.6310966666666665
0.0762283333333333 0.9237716666666664 0.6242516666666665
0.0492883333333334 0.9507116666666665 0.6115066666666665
0.1343733333333333 0.8656266666666667 0.6505116666666665
0.0341733333333333 0.9658266666666666 0.6044916666666665
0.0878683333333334 0.8635966666666666 0.6406066666666665
0.0736283333333332 0.8768966666666665 0.6343966666666665
0.0449683333333334 0.9055316666666666 0.6213066666666666
0.0319383333333333 0.9197966666666665 0.6150816666666666
0.0415233333333333 0.8595766666666667 0.6309266666666665
0.0274133333333333 0.8738316666666665 0.6253916666666666
0.2394233333333333 0.6197116666666667 0.5402966666666665
0.2378033333333333 0.6189016666666667 0.5285016666666665
0.2088533333333333 0.6044266666666667 0.5231066666666665
0.1517533333333334 0.5758766666666667 0.5241866666666666
0.1264983333333334 0.5632466666666667 0.5306216666666665
0.0993433333333334 0.5496716666666667 0.5498366666666665
0.0993233333333332 0.5496616666666668 0.5623016666666666
0.1289733333333334 0.5644866666666667 0.5673966666666665
0.1881033333333332 0.5940516666666666 0.5666666666666665
0.2135233333333332 0.6067616666666666 0.5601316666666666
0.2125033333333332 0.6062516666666666 0.5472216666666666
0.1832633333333333 0.5916316666666667 0.5415566666666666
0.1830333333333334 0.5915166666666667 0.5298116666666666
0.1264233333333334 0.5632116666666667 0.5430466666666666
0.1548633333333334 0.5774316666666667 0.5488366666666665
0.1564633333333333 0.5782316666666667 0.5607766666666666
0.2659833333333332 0.6329916666666666 0.5208666666666665
0.0710933333333334 0.5355466666666666 0.5694866666666667
0.1190433333333333 0.7380866666666666 0.6435166666666665
0.0917883333333333 0.6835766666666665 0.6310966666666665
0.0762283333333333 0.6524566666666666 0.6242516666666665
0.0492883333333334 0.5985766666666665 0.6115066666666665
0.1343733333333333 0.7687466666666666 0.6505116666666665
0.0341733333333333 0.5683466666666666 0.6044916666666665
0.1364033333333333 0.7242716666666665 0.6406066666666665
0.1231033333333334 0.6967316666666666 0.6343966666666665
0.0944683333333334 0.6394366666666665 0.6213066666666666
0.0802033333333334 0.6121416666666666 0.6150816666666666
0.1404233333333333 0.6819466666666666 0.6309266666666665
0.1261683333333334 0.6535816666666666 0.6253916666666666
0.0878683333333333 0.7242716666666665 0.6406066666666665
0.0736283333333333 0.6967316666666666 0.6343966666666665
0.0449683333333334 0.6394366666666665 0.6213066666666666
0.0319383333333333 0.6121416666666666 0.6150816666666666
0.0415233333333333 0.6819466666666666 0.6309266666666665
0.0274133333333333 0.6535816666666666 0.6253916666666666
0.2757283333333334 0.8635966666666666 0.6406066666666665
0.3032683333333332 0.8768966666666665 0.6343966666666665
0.3605633333333333 0.9055316666666666 0.6213066666666666
0.3878583333333333 0.9197966666666665 0.6150816666666666
0.3180533333333333 0.8595766666666667 0.6309266666666665
0.3464183333333333 0.8738316666666665 0.6253916666666666
0.1364033333333334 0.9121316666666666 0.6406066666666665
0.1231033333333333 0.9263716666666666 0.6343966666666665
0.0944683333333334 0.9550316666666665 0.6213066666666666
0.0802033333333334 0.9680616666666666 0.6150816666666666
0.1404233333333333 0.9584766666666665 0.6309266666666665
0.1261683333333333 0.9725866666666665 0.6253916666666666
0.3909383333333333 0.9212016666666666 0.6927266666666666
0.3633983333333333 0.9069616666666667 0.6989366666666664
0.3061033333333333 0.8783016666666666 0.7120266666666665
0.2788083333333333 0.8652716666666666 0.7182516666666665
0.3486133333333333 0.8748566666666666 0.7024066666666665
0.3202483333333332 0.8607466666666665 0.7079416666666666
0.0787983333333333 0.9697366666666667 0.6927266666666666
0.0930383333333333 0.9564366666666666 0.6989366666666664
0.1216983333333332 0.9278016666666665 0.7120266666666665
0.1347283333333334 0.9135366666666666 0.7182516666666665
0.1251433333333334 0.9737566666666666 0.7024066666666665
0.1392533333333333 0.9595016666666666 0.7079416666666666
0.0302633333333333 0.6090616666666665 0.6927266666666666
0.0435633333333333 0.6366016666666665 0.6989366666666664
0.0721983333333333 0.6938966666666665 0.7120266666666665
0.0864633333333333 0.7211916666666666 0.7182516666666665
0.0262433333333333 0.6513866666666666 0.7024066666666665
0.0404983333333333 0.6797516666666665 0.7079416666666666
0.1197116666666668 0.8802883333333335 0.9597033333333332
0.1189016666666668 0.8810983333333334 0.9714983333333331
0.1044266666666667 0.8955733333333334 0.9768933333333331
0.0758766666666667 0.9241233333333334 0.9758133333333331
0.0632516666666668 0.9367533333333333 0.9693783333333331
0.0496716666666668 0.9503283333333334 0.9501633333333330
0.0496616666666666 0.9503383333333333 0.9376983333333331
0.0644866666666668 0.9355133333333333 0.9326033333333331
0.0940516666666667 0.9059483333333334 0.9333333333333332
0.1067616666666667 0.8932383333333335 0.9398683333333331
0.1062516666666667 0.8937483333333335 0.9527783333333331
0.0916316666666668 0.9083683333333333 0.9584433333333331
0.0915166666666668 0.9084833333333334 0.9701883333333331
0.0632116666666667 0.9367883333333333 0.9569533333333332
0.0774316666666668 0.9225683333333334 0.9511633333333332
0.0782316666666668 0.9217683333333333 0.9392233333333332
0.1329916666666667 0.8670083333333335 0.9791333333333331
0.0355466666666667 0.9644533333333334 0.9305133333333332
0.3809566666666666 0.7619133333333332 0.8564833333333332
0.4082116666666666 0.8164233333333332 0.8689033333333332
0.4237716666666667 0.8475433333333332 0.8757483333333332
0.4507116666666666 0.9014233333333332 0.8884933333333332
0.3656266666666667 0.7312533333333333 0.8494883333333331
0.4658266666666667 0.9316533333333334 0.8955083333333331
0.4121316666666666 0.7757283333333332 0.8593933333333332
0.4263716666666667 0.8032683333333333 0.8656033333333332
0.4550316666666666 0.8605633333333333 0.8786933333333332
0.4680616666666667 0.8878583333333332 0.8849183333333331
0.4584766666666666 0.8180533333333332 0.8690733333333333
0.4725866666666667 0.8464183333333332 0.8746083333333332
0.1197116666666667 0.7394233333333333 0.9597033333333332
0.1189016666666667 0.7378033333333334 0.9714983333333331
0.1044266666666667 0.7088533333333333 0.9768933333333331
0.0758766666666666 0.6517533333333334 0.9758133333333331
0.0632466666666667 0.6264983333333334 0.9693783333333331
0.0496716666666667 0.5993433333333333 0.9501633333333330
0.0496616666666667 0.5993233333333332 0.9376983333333331
0.0644866666666667 0.6289733333333334 0.9326033333333331
0.0940516666666666 0.6881033333333333 0.9333333333333332
0.1067616666666667 0.7135233333333333 0.9398683333333331
0.1062516666666667 0.7125033333333333 0.9527783333333331
0.0916316666666667 0.6832633333333333 0.9584433333333331
0.0915166666666667 0.6830333333333334 0.9701883333333331
0.0632116666666667 0.6264233333333333 0.9569533333333332
0.0774316666666667 0.6548633333333334 0.9511633333333332
0.0782316666666667 0.6564633333333334 0.9392233333333332
0.1329916666666668 0.7659833333333333 0.9791333333333331
0.0355466666666667 0.5710933333333333 0.9305133333333332
0.2380866666666666 0.6190433333333333 0.8564833333333332
0.1835766666666666 0.5917883333333334 0.8689033333333332
0.1524566666666666 0.5762283333333333 0.8757483333333332
0.0985766666666667 0.5492883333333334 0.8884933333333332
0.2687466666666667 0.6343733333333333 0.8494883333333331
0.0683466666666667 0.5341733333333333 0.8955083333333331
0.2242716666666666 0.6364033333333333 0.8593933333333332
0.1967316666666666 0.6231033333333333 0.8656033333333332
0.1394366666666667 0.5944683333333334 0.8786933333333332
0.1121416666666666 0.5802033333333334 0.8849183333333331
0.1819466666666667 0.6404233333333333 0.8690733333333333
0.1535816666666667 0.6261683333333333 0.8746083333333332
0.2605766666666668 0.8802883333333335 0.9597033333333332
0.2621966666666667 0.8810983333333334 0.9714983333333331
0.2911466666666667 0.8955733333333334 0.9768933333333331
0.3482466666666666 0.9241233333333334 0.9758133333333331
0.3735016666666666 0.9367483333333333 0.9693783333333331
0.4006566666666667 0.9503283333333334 0.9501633333333330
0.4006766666666667 0.9503383333333333 0.9376983333333331
0.3710266666666666 0.9355133333333333 0.9326033333333331
0.3118966666666666 0.9059483333333334 0.9333333333333332
0.2864766666666666 0.8932383333333335 0.9398683333333331
0.2874966666666667 0.8937483333333335 0.9527783333333331
0.3167366666666667 0.9083683333333333 0.9584433333333331
0.3169666666666667 0.9084833333333334 0.9701883333333331
0.3735766666666666 0.9367883333333333 0.9569533333333332
0.3451366666666667 0.9225683333333334 0.9511633333333332
0.3435366666666666 0.9217683333333333 0.9392233333333332
0.2340166666666667 0.8670083333333335 0.9791333333333331
0.4289066666666666 0.9644533333333334 0.9305133333333332
0.3809566666666667 0.6190433333333333 0.8564833333333332
0.4082116666666666 0.5917883333333334 0.8689033333333332
0.4237716666666666 0.5762283333333333 0.8757483333333332
0.4507116666666666 0.5492883333333334 0.8884933333333332
0.3656266666666667 0.6343733333333333 0.8494883333333331
0.4658266666666667 0.5341733333333334 0.8955083333333331
0.3635966666666667 0.5878683333333333 0.8593933333333332
0.3768966666666666 0.5736283333333333 0.8656033333333332
0.4055316666666666 0.5449683333333333 0.8786933333333332
0.4197966666666665 0.5319383333333333 0.8849183333333331
0.3595766666666667 0.5415233333333334 0.8690733333333333
0.3738316666666666 0.5274133333333333 0.8746083333333332
0.2136216666666667 0.7863783333333332 0.7069633333333332
0.2144316666666667 0.7855683333333333 0.6951683333333332
0.2289066666666667 0.7710933333333333 0.6897733333333332
0.2574566666666667 0.7425433333333332 0.6908533333333332
0.2700866666666665 0.7299183333333332 0.6972883333333332
0.2836616666666666 0.7163383333333332 0.7165033333333332
0.2836716666666666 0.7163283333333331 0.7289683333333332
0.2688466666666666 0.7311533333333332 0.7340633333333332
0.2392816666666666 0.7607183333333333 0.7333333333333332
0.2265716666666667 0.7734283333333333 0.7267983333333332
0.2270816666666667 0.7729183333333333 0.7138883333333332
0.2417016666666667 0.7582983333333332 0.7082233333333332
0.2418166666666667 0.7581833333333332 0.6964783333333332
0.2701216666666666 0.7298783333333332 0.7097133333333332
0.2559016666666666 0.7440983333333332 0.7155033333333333
0.2551016666666666 0.7448983333333332 0.7274433333333332
0.2003416666666667 0.7996583333333332 0.6875333333333332
0.2977866666666665 0.7022133333333332 0.7361533333333332
0.0952466666666668 0.5476233333333334 0.8101833333333331
0.1497566666666667 0.5748783333333334 0.7977633333333333
0.1808766666666667 0.5904383333333333 0.7909183333333333
0.2347566666666667 0.6173783333333334 0.7781733333333332
0.0645866666666668 0.5322933333333333 0.8171783333333332
0.2649866666666666 0.6324933333333334 0.7711583333333333
0.1090616666666666 0.5787983333333333 0.8072733333333332
0.1366016666666667 0.5930383333333333 0.8010633333333331
0.1938966666666667 0.6216983333333332 0.7879733333333332
0.2211916666666666 0.6347283333333333 0.7817483333333332
0.1513866666666667 0.6251433333333334 0.7975933333333332
0.1797516666666666 0.6392533333333333 0.7920583333333332
0.2136216666666667 0.9272433333333332 0.7069633333333332
0.2144316666666667 0.9288633333333333 0.6951683333333332
0.2289066666666667 0.9578133333333334 0.6897733333333332
0.2574566666666667 0.5149133333333332 0.6908533333333332
0.2700816666666666 0.5401683333333333 0.6972883333333332
0.2836616666666666 0.5673233333333333 0.7165033333333332
0.2836716666666666 0.5673433333333332 0.7289683333333332
0.2688466666666666 0.5376933333333332 0.7340633333333332
0.2392816666666666 0.9785633333333331 0.7333333333333332
0.2265716666666667 0.9531433333333332 0.7267983333333332
0.2270816666666666 0.9541633333333330 0.7138883333333332
0.2417016666666668 0.9834033333333334 0.7082233333333332
0.2418166666666667 0.9836333333333332 0.6964783333333332
0.2701216666666666 0.5402433333333333 0.7097133333333332
0.2559016666666666 0.5118033333333333 0.7155033333333333
0.2551016666666666 0.5102033333333332 0.7274433333333332
0.2003416666666666 0.9006833333333332 0.6875333333333332
0.2977866666666665 0.5955733333333332 0.7361533333333332
0.4523766666666666 0.5476233333333334 0.8101833333333331
0.4251216666666666 0.5748783333333334 0.7977633333333333
0.4095616666666667 0.5904383333333334 0.7909183333333333
0.3826216666666667 0.6173783333333334 0.7781733333333332
0.4677066666666667 0.5322933333333333 0.8171783333333332
0.3675066666666666 0.6324933333333334 0.7711583333333333
0.4212016666666667 0.5302633333333333 0.8072733333333332
0.4069616666666667 0.5435633333333333 0.8010633333333331
0.3783016666666666 0.5721983333333334 0.7879733333333332
0.3652716666666666 0.5864633333333333 0.7817483333333332
0.3748566666666666 0.5262433333333333 0.7975933333333332
0.3607466666666667 0.5404983333333333 0.7920583333333332
0.0727566666666666 0.7863783333333332 0.7069633333333332
0.0711366666666667 0.7855683333333333 0.6951683333333332
0.0421866666666667 0.7710933333333333 0.6897733333333332
0.4850866666666666 0.7425433333333332 0.6908533333333332
0.4598316666666666 0.7299133333333333 0.6972883333333332
0.4326766666666665 0.7163383333333332 0.7165033333333332
0.4326566666666665 0.7163283333333333 0.7289683333333332
0.4623066666666665 0.7311533333333332 0.7340633333333332
0.0214366666666666 0.7607183333333333 0.7333333333333332
0.0468566666666666 0.7734283333333333 0.7267983333333332
0.0458366666666666 0.7729183333333333 0.7138883333333332
0.0165966666666666 0.7582983333333332 0.7082233333333332
0.0163666666666667 0.7581833333333332 0.6964783333333332
0.4597566666666665 0.7298783333333332 0.7097133333333332
0.4881966666666666 0.7440983333333332 0.7155033333333333
0.4897966666666665 0.7448983333333332 0.7274433333333332
0.0993166666666667 0.7996583333333332 0.6875333333333332
0.4044266666666665 0.7022133333333332 0.7361533333333332
0.4523766666666666 0.9047533333333332 0.8101833333333331
0.4251216666666665 0.8502433333333331 0.7977633333333333
0.4095616666666666 0.8191233333333333 0.7909183333333333
0.3826216666666665 0.7652433333333332 0.7781733333333332
0.4677066666666665 0.9354133333333331 0.8171783333333332
0.3675066666666666 0.7350133333333333 0.7711583333333333
0.4697366666666666 0.8909383333333333 0.8072733333333332
0.4564366666666667 0.8633983333333332 0.8010633333333331
0.4278016666666666 0.8061033333333334 0.7879733333333332
0.4135366666666666 0.7788083333333332 0.7817483333333332
0.4737566666666666 0.8486133333333333 0.7975933333333332
0.4595016666666666 0.8202483333333332 0.7920583333333332
0.4212016666666666 0.8909383333333333 0.8072733333333332
0.4069616666666666 0.8633983333333332 0.8010633333333331
0.3783016666666666 0.8061033333333334 0.7879733333333332
0.3652716666666666 0.7788083333333332 0.7817483333333332
0.3748566666666666 0.8486133333333333 0.7975933333333332
0.3607466666666666 0.8202483333333332 0.7920583333333332
0.1090616666666666 0.5302633333333333 0.8072733333333332
0.1366016666666667 0.5435633333333333 0.8010633333333331
0.1938966666666667 0.5721983333333334 0.7879733333333332
0.2211916666666666 0.5864633333333333 0.7817483333333332
0.1513866666666666 0.5262433333333333 0.7975933333333332
0.1797516666666667 0.5404983333333333 0.7920583333333332
0.4697366666666666 0.5787983333333333 0.8072733333333332
0.4564366666666667 0.5930383333333333 0.8010633333333331
0.4278016666666666 0.6216983333333332 0.7879733333333332
0.4135366666666666 0.6347283333333333 0.7817483333333332
0.4737566666666667 0.6251433333333334 0.7975933333333332
0.4595016666666666 0.6392533333333333 0.7920583333333332
0.2242716666666666 0.5878683333333333 0.8593933333333332
0.1967316666666666 0.5736283333333333 0.8656033333333332
0.1394366666666666 0.5449683333333333 0.8786933333333332
0.1121416666666666 0.5319383333333333 0.8849183333333331
0.1819466666666667 0.5415233333333334 0.8690733333333333
0.1535816666666666 0.5274133333333333 0.8746083333333332
0.4121316666666666 0.6364033333333333 0.8593933333333332
0.4263716666666667 0.6231033333333333 0.8656033333333332
0.4550316666666666 0.5944683333333334 0.8786933333333332
0.4680616666666667 0.5802033333333334 0.8849183333333331
0.4584766666666666 0.6404233333333333 0.8690733333333333
0.4725866666666667 0.6261683333333333 0.8746083333333332
0.3635966666666666 0.7757283333333332 0.8593933333333332
0.3768966666666667 0.8032683333333333 0.8656033333333332
0.4055316666666666 0.8605633333333333 0.8786933333333332
0.4197966666666665 0.8878583333333332 0.8849183333333331
0.3595766666666667 0.8180533333333332 0.8690733333333333
0.3738316666666666 0.8464183333333332 0.8746083333333332
0.9530449999999998 0.0469550000000000 0.1263700000000000
0.9522349999999998 0.0477650000000000 0.1381650000000000
0.9377599999999998 0.0622400000000000 0.1435600000000000
0.9092100000000000 0.0907900000000000 0.1424800000000000
0.8965849999999999 0.1034200000000000 0.1360450000000000
0.8830049999999999 0.1169950000000000 0.1168300000000000
0.8829949999999999 0.1170050000000000 0.1043650000000000
0.8978199999999998 0.1021800000000000 0.0992700000000000
0.9273849999999999 0.0726150000000000 0.1000000000000000
0.9400949999999998 0.0599050000000000 0.1065350000000000
0.9395849999999999 0.0604150000000000 0.1194450000000000
0.9249649999999999 0.0750350000000000 0.1251100000000000
0.9248499999999997 0.0751500000000000 0.1368550000000000
0.8965449999999998 0.1034550000000000 0.1236200000000000
0.9107649999999998 0.0892350000000000 0.1178300000000000
0.9115649999999997 0.0884350000000000 0.1058900000000000
0.9663249999999998 0.0336750000000000 0.1458000000000000
0.8688799999999999 0.1311200000000000 0.0971800000000000
0.7142899999999999 0.4285800000000000 0.0231500000000000
0.7415449999999999 0.4830900000000000 0.0355700000000000
0.7571049999999998 0.0142100000000000 0.0424150000000000
0.7840449999999999 0.0680900000000000 0.0551600000000000
0.6989599999999999 0.3979200000000000 0.0161550000000000
0.7991599999999998 0.0983200000000000 0.0621750000000000
0.7454649999999999 0.4423949999999999 0.0260600000000000
0.7597050000000000 0.4699349999999999 0.0322700000000000
0.7883649999999999 0.0272300000000000 0.0453600000000000
0.8013949999999999 0.0545250000000000 0.0515850000000000
0.7918099999999998 0.4847199999999999 0.0357400000000000
0.8059199999999999 0.0130850000000000 0.0412750000000000
0.9530449999999998 0.4060899999999998 0.1263700000000000
0.9522349999999998 0.4044699999999999 0.1381650000000000
0.9377599999999998 0.3755199999999999 0.1435600000000000
0.9092100000000000 0.3184200000000000 0.1424800000000000
0.8965799999999998 0.2931650000000000 0.1360450000000000
0.8830049999999999 0.2660099999999999 0.1168300000000000
0.8829949999999999 0.2659899999999999 0.1043650000000000
0.8978200000000000 0.2956400000000000 0.0992700000000000
0.9273849999999999 0.3547700000000000 0.1000000000000000
0.9400949999999999 0.3801900000000000 0.1065350000000000
0.9395849999999999 0.3791700000000000 0.1194450000000000
0.9249649999999999 0.3499300000000000 0.1251100000000000
0.9248499999999999 0.3497000000000000 0.1368550000000000
0.8965449999999997 0.2930899999999999 0.1236200000000000
0.9107649999999999 0.3215300000000000 0.1178300000000000
0.9115649999999997 0.3231300000000000 0.1058900000000000
0.9663249999999999 0.4326499999999999 0.1458000000000000
0.8688799999999999 0.2377600000000000 0.0971800000000000
0.5714199999999999 0.2857100000000000 0.0231500000000000
0.5169099999999999 0.2584550000000000 0.0355700000000000
0.9857899999999998 0.2428949999999999 0.0424150000000000
0.9319099999999999 0.2159550000000000 0.0551600000000000
0.6020799999999998 0.3010400000000000 0.0161550000000000
0.9016799999999998 0.2008399999999999 0.0621750000000000
0.5576049999999999 0.3030700000000000 0.0260600000000000
0.5300650000000000 0.2897700000000000 0.0322700000000000
0.9727699999999998 0.2611350000000000 0.0453600000000000
0.9454750000000000 0.2468700000000000 0.0515850000000000
0.5152799999999998 0.3070900000000000 0.0357400000000000
0.9869149999999999 0.2928350000000000 0.0412750000000000
0.5939099999999999 0.0469550000000000 0.1263700000000000
0.5955299999999999 0.0477650000000000 0.1381650000000000
0.6244799999999999 0.0622400000000000 0.1435600000000000
0.6815799999999999 0.0907900000000000 0.1424800000000000
0.7068349999999999 0.1034150000000000 0.1360450000000000
0.7339899999999999 0.1169950000000000 0.1168300000000000
0.7340099999999999 0.1170050000000000 0.1043650000000000
0.7043599999999999 0.1021800000000000 0.0992700000000000
0.6452299999999999 0.0726150000000000 0.1000000000000000
0.6198099999999999 0.0599050000000000 0.1065350000000000
0.6208299999999999 0.0604150000000000 0.1194450000000000
0.6500699999999999 0.0750350000000000 0.1251100000000000
0.6502999999999999 0.0751500000000000 0.1368550000000000
0.7069099999999999 0.1034550000000000 0.1236200000000000
0.6784699999999999 0.0892350000000000 0.1178300000000000
0.6768699999999999 0.0884350000000000 0.1058900000000000
0.5673500000000000 0.0336750000000000 0.1458000000000000
0.7622399999999999 0.1311200000000000 0.0971800000000000
0.7142899999999999 0.2857100000000000 0.0231500000000000
0.7415449999999999 0.2584550000000000 0.0355700000000000
0.7571049999999999 0.2428950000000000 0.0424150000000000
0.7840449999999999 0.2159550000000000 0.0551600000000000
0.6989599999999999 0.3010400000000000 0.0161550000000000
0.7991600000000000 0.2008400000000000 0.0621750000000000
0.6969299999999999 0.2545350000000000 0.0260600000000000
0.7102299999999998 0.2402950000000000 0.0322700000000000
0.7388649999999999 0.2116350000000000 0.0453600000000000
0.7531299999999997 0.1986049999999999 0.0515850000000000
0.6929099999999998 0.2081900000000000 0.0357400000000000
0.7071649999999999 0.1940799999999999 0.0412750000000000
0.5469549999999999 0.4530449999999999 0.3736299999999999
0.5477649999999999 0.4522349999999999 0.3618350000000000
0.5622399999999999 0.4377599999999999 0.3564399999999999
0.5907899999999999 0.4092100000000000 0.3575199999999999
0.6034199999999998 0.3965850000000000 0.3639549999999999
0.6169950000000000 0.3830049999999999 0.3831700000000000
0.6170049999999999 0.3829949999999999 0.3956349999999999
0.6021799999999999 0.3978200000000000 0.4007300000000000
0.5726150000000000 0.4273850000000000 0.3999999999999999
0.5599050000000000 0.4400950000000000 0.3934649999999999
0.5604149999999999 0.4395849999999999 0.3805549999999999
0.5750350000000000 0.4249649999999999 0.3748899999999999
0.5751499999999999 0.4248499999999999 0.3631449999999999
0.6034549999999999 0.3965450000000000 0.3763799999999999
0.5892349999999998 0.4107649999999999 0.3821700000000000
0.5884349999999999 0.4115650000000000 0.3941100000000000
0.5336749999999999 0.4663249999999999 0.3541999999999998
0.6311199999999999 0.3688800000000000 0.4028200000000000
0.9285799999999997 0.2142900000000000 0.4768499999999999
0.9830899999999998 0.2415450000000000 0.4644300000000000
0.5142100000000001 0.2571050000000000 0.4575850000000000
0.5680899999999999 0.2840450000000000 0.4448400000000000
0.8979199999999998 0.1989600000000000 0.4838449999999999
0.5983200000000000 0.2991600000000000 0.4378249999999999
0.9423949999999998 0.2454650000000000 0.4739399999999999
0.9699349999999998 0.2597050000000000 0.4677299999999999
0.5272299999999999 0.2883650000000000 0.4546399999999999
0.5545250000000000 0.3013950000000000 0.4484150000000000
0.9847199999999998 0.2918100000000000 0.4642600000000000
0.5130850000000000 0.3059200000000000 0.4587249999999999
0.5469550000000000 0.0939100000000000 0.3736299999999999
0.5477649999999999 0.0955300000000000 0.3618350000000000
0.5622400000000000 0.1244800000000000 0.3564399999999999
0.5907899999999999 0.1815800000000000 0.3575199999999999
0.6034149999999999 0.2068349999999999 0.3639549999999999
0.6169950000000000 0.2339900000000001 0.3831700000000000
0.6170050000000000 0.2340100000000000 0.3956349999999999
0.6021799999999999 0.2043600000000000 0.4007300000000000
0.5726149999999999 0.1452299999999999 0.3999999999999999
0.5599049999999999 0.1198100000000000 0.3934649999999999
0.5604149999999999 0.1208300000000000 0.3805549999999999
0.5750350000000000 0.1500700000000000 0.3748899999999999
0.5751499999999999 0.1503000000000000 0.3631449999999999
0.6034550000000000 0.2069100000000000 0.3763799999999999
0.5892350000000000 0.1784700000000000 0.3821700000000000
0.5884349999999999 0.1768699999999999 0.3941100000000000
0.5336749999999999 0.0673500000000000 0.3541999999999998
0.6311199999999999 0.2622400000000000 0.4028200000000000
0.7857099999999998 0.2142900000000000 0.4768499999999999
0.7584549999999999 0.2415450000000000 0.4644300000000000
0.7428950000000000 0.2571050000000000 0.4575850000000000
0.7159549999999999 0.2840450000000000 0.4448400000000000
0.8010399999999998 0.1989600000000000 0.4838449999999999
0.7008399999999999 0.2991600000000000 0.4378249999999999
0.7545349999999997 0.1969300000000000 0.4739399999999999
0.7402949999999998 0.2102299999999999 0.4677299999999999
0.7116349999999999 0.2388650000000000 0.4546399999999999
0.6986049999999998 0.2531300000000000 0.4484150000000000
0.7081899999999999 0.1929100000000000 0.4642600000000000
0.6940799999999999 0.2071649999999999 0.4587249999999999
0.9060899999999997 0.4530450000000000 0.3736299999999999
0.9044699999999998 0.4522349999999999 0.3618350000000000
0.8755199999999997 0.4377599999999999 0.3564399999999999
0.8184199999999999 0.4092100000000000 0.3575199999999999
0.7931649999999999 0.3965799999999999 0.3639549999999999
0.7660099999999999 0.3830049999999999 0.3831700000000000
0.7659899999999997 0.3829949999999999 0.3956349999999999
0.7956399999999999 0.3978200000000000 0.4007300000000000
0.8547699999999999 0.4273850000000000 0.3999999999999999
0.8801899999999998 0.4400950000000000 0.3934649999999999
0.8791699999999998 0.4395849999999999 0.3805549999999999
0.8499299999999999 0.4249649999999999 0.3748899999999999
0.8496999999999999 0.4248499999999999 0.3631449999999999
0.7930899999999999 0.3965450000000000 0.3763799999999999
0.8215299999999999 0.4107649999999999 0.3821700000000000
0.8231299999999999 0.4115650000000000 0.3941100000000000
0.9326499999999998 0.4663249999999999 0.3541999999999998
0.7377599999999999 0.3688800000000000 0.4028200000000000
0.7857099999999999 0.0714200000000000 0.4768499999999999
0.7584549999999999 0.0169100000000000 0.4644300000000000
0.7428950000000000 0.4857900000000001 0.4575850000000000
0.7159549999999999 0.4319100000000001 0.4448400000000000
0.8010399999999998 0.1020800000000000 0.4838449999999999
0.7008399999999998 0.4016799999999999 0.4378249999999999
0.8030699999999997 0.0576050000000000 0.4739399999999999
0.7897699999999999 0.0300650000000000 0.4677299999999999
0.7611349999999999 0.4727700000000001 0.4546399999999999
0.7468699999999999 0.4454750000000000 0.4484150000000000
0.8070899999999999 0.0152800000000000 0.4642600000000000
0.7928349999999998 0.4869150000000000 0.4587249999999999
0.7545349999999997 0.0576050000000000 0.4739399999999999
0.7402949999999997 0.0300650000000000 0.4677299999999999
0.7116350000000000 0.4727700000000001 0.4546399999999999
0.6986049999999998 0.4454750000000000 0.4484150000000000
0.7081899999999998 0.0152800000000000 0.4642600000000000
0.6940799999999999 0.4869150000000000 0.4587249999999999
0.9423949999999998 0.1969300000000000 0.4739399999999999
0.9699349999999998 0.2102299999999999 0.4677299999999999
0.5272300000000000 0.2388650000000000 0.4546399999999999
0.5545250000000000 0.2531300000000000 0.4484150000000000
0.9847199999999998 0.1929100000000000 0.4642600000000000
0.5130850000000000 0.2071649999999999 0.4587249999999999
0.8030699999999997 0.2454650000000000 0.4739399999999999
0.7897699999999999 0.2597050000000000 0.4677299999999999
0.7611349999999999 0.2883650000000000 0.4546399999999999
0.7468699999999999 0.3013950000000000 0.4484150000000000
0.8070900000000000 0.2918100000000000 0.4642600000000000
0.7928349999999998 0.3059200000000000 0.4587249999999999
0.5576049999999999 0.2545350000000000 0.0260600000000000
0.5300649999999999 0.2402950000000000 0.0322700000000000
0.9727699999999999 0.2116350000000000 0.0453600000000000
0.9454749999999998 0.1986049999999999 0.0515850000000000
0.5152799999999998 0.2081900000000000 0.0357400000000000
0.9869149999999999 0.1940799999999999 0.0412750000000000
0.7454649999999999 0.3030700000000000 0.0260600000000000
0.7597050000000000 0.2897700000000000 0.0322700000000000
0.7883649999999998 0.2611350000000000 0.0453600000000000
0.8013949999999999 0.2468700000000000 0.0515850000000000
0.7918099999999999 0.3070900000000000 0.0357400000000000
0.8059199999999997 0.2928350000000000 0.0412750000000000
0.6969299999999999 0.4423949999999999 0.0260600000000000
0.7102299999999998 0.4699349999999999 0.0322700000000000
0.7388649999999999 0.0272300000000000 0.0453600000000000
0.7531299999999999 0.0545250000000000 0.0515850000000000
0.6929099999999997 0.4847199999999999 0.0357400000000000
0.7071649999999999 0.0130850000000000 0.0412750000000000
0.7863783333333332 0.2136216666666667 0.2930366666666667
0.7855683333333332 0.2144316666666667 0.3048316666666666
0.7710933333333331 0.2289066666666666 0.3102266666666666
0.7425433333333332 0.2574566666666666 0.3091466666666666
0.7299183333333332 0.2700866666666666 0.3027116666666666
0.7163383333333332 0.2836616666666667 0.2834966666666666
0.7163283333333331 0.2836716666666667 0.2710316666666666
0.7311533333333332 0.2688466666666667 0.2659366666666666
0.7607183333333333 0.2392816666666667 0.2666666666666666
0.7734283333333332 0.2265716666666667 0.2732016666666666
0.7729183333333333 0.2270816666666667 0.2861116666666666
0.7582983333333332 0.2417016666666666 0.2917766666666666
0.7581833333333332 0.2418166666666667 0.3035216666666666
0.7298783333333332 0.2701216666666666 0.2902866666666666
0.7440983333333332 0.2559016666666666 0.2844966666666666
0.7448983333333332 0.2551016666666667 0.2725566666666666
0.7996583333333331 0.2003416666666666 0.3124666666666666
0.7022133333333332 0.2977866666666666 0.2638466666666666
0.5476233333333332 0.0952466666666667 0.1898166666666666
0.5748783333333332 0.1497566666666666 0.2022366666666666
0.5904383333333332 0.1808766666666667 0.2090816666666666
0.6173783333333333 0.2347566666666667 0.2218266666666666
0.5322933333333332 0.0645866666666667 0.1828216666666666
0.6324933333333332 0.2649866666666666 0.2288416666666666
0.5787983333333332 0.1090616666666666 0.1927266666666666
0.5930383333333331 0.1366016666666666 0.1989366666666666
0.6216983333333330 0.1938966666666666 0.2120266666666666
0.6347283333333331 0.2211916666666666 0.2182516666666666
0.6251433333333332 0.1513866666666667 0.2024066666666666
0.6392533333333331 0.1797516666666666 0.2079416666666666
0.7863783333333332 0.0727566666666666 0.2930366666666667
0.7855683333333332 0.0711366666666666 0.3048316666666666
0.7710933333333332 0.0421866666666666 0.3102266666666666
0.7425433333333332 0.4850866666666666 0.3091466666666666
0.7299133333333332 0.4598316666666666 0.3027116666666666
0.7163383333333332 0.4326766666666666 0.2834966666666666
0.7163283333333332 0.4326566666666666 0.2710316666666666
0.7311533333333332 0.4623066666666666 0.2659366666666666
0.7607183333333332 0.0214366666666667 0.2666666666666666
0.7734283333333332 0.0468566666666667 0.2732016666666666
0.7729183333333332 0.0458366666666666 0.2861116666666666
0.7582983333333332 0.0165966666666666 0.2917766666666666
0.7581833333333332 0.0163666666666666 0.3035216666666666
0.7298783333333332 0.4597566666666666 0.2902866666666666
0.7440983333333332 0.4881966666666667 0.2844966666666666
0.7448983333333332 0.4897966666666667 0.2725566666666666
0.7996583333333331 0.0993166666666666 0.3124666666666666
0.7022133333333332 0.4044266666666667 0.2638466666666666
0.9047533333333332 0.4523766666666666 0.1898166666666666
0.8502433333333330 0.4251216666666666 0.2022366666666666
0.8191233333333331 0.4095616666666666 0.2090816666666666
0.7652433333333331 0.3826216666666666 0.2218266666666666
0.9354133333333332 0.4677066666666666 0.1828216666666666
0.7350133333333331 0.3675066666666666 0.2288416666666666
0.8909383333333333 0.4697366666666667 0.1927266666666666
0.8633983333333330 0.4564366666666667 0.1989366666666666
0.8061033333333332 0.4278016666666666 0.2120266666666666
0.7788083333333331 0.4135366666666667 0.2182516666666666
0.8486133333333331 0.4737566666666667 0.2024066666666666
0.8202483333333330 0.4595016666666667 0.2079416666666666
0.9272433333333332 0.2136216666666667 0.2930366666666667
0.9288633333333332 0.2144316666666667 0.3048316666666666
0.9578133333333332 0.2289066666666667 0.3102266666666666
0.5149133333333333 0.2574566666666666 0.3091466666666666
0.5401683333333334 0.2700816666666667 0.3027116666666666
0.5673233333333333 0.2836616666666667 0.2834966666666666
0.5673433333333332 0.2836716666666667 0.2710316666666666
0.5376933333333332 0.2688466666666667 0.2659366666666666
0.9785633333333330 0.2392816666666666 0.2666666666666666
0.9531433333333330 0.2265716666666666 0.2732016666666666
0.9541633333333330 0.2270816666666666 0.2861116666666666
0.9834033333333332 0.2417016666666667 0.2917766666666666
0.9836333333333331 0.2418166666666667 0.3035216666666666
0.5402433333333333 0.2701216666666667 0.2902866666666666
0.5118033333333333 0.2559016666666667 0.2844966666666666
0.5102033333333332 0.2551016666666667 0.2725566666666666
0.9006833333333331 0.2003416666666666 0.3124666666666666
0.5955733333333332 0.2977866666666666 0.2638466666666666
0.5476233333333334 0.4523766666666666 0.1898166666666666
0.5748783333333332 0.4251216666666666 0.2022366666666666
0.5904383333333333 0.4095616666666667 0.2090816666666666
0.6173783333333331 0.3826216666666666 0.2218266666666666
0.5322933333333333 0.4677066666666666 0.1828216666666666
0.6324933333333331 0.3675066666666666 0.2288416666666666
0.5302633333333333 0.4212016666666668 0.1927266666666666
0.5435633333333332 0.4069616666666667 0.1989366666666666
0.5721983333333333 0.3783016666666666 0.2120266666666666
0.5864633333333332 0.3652716666666666 0.2182516666666666
0.5262433333333332 0.3748566666666666 0.2024066666666666
0.5404983333333332 0.3607466666666667 0.2079416666666666
0.8802883333333332 0.1197116666666667 0.0402966666666666
0.8810983333333331 0.1189016666666667 0.0285016666666666
0.8955733333333331 0.1044266666666667 0.0231066666666667
0.9241233333333332 0.0758766666666667 0.0241866666666667
0.9367533333333331 0.0632516666666667 0.0306216666666667
0.9503283333333331 0.0496716666666667 0.0498366666666666
0.9503383333333331 0.0496616666666666 0.0623016666666667
0.9355133333333332 0.0644866666666667 0.0673966666666666
0.9059483333333332 0.0940516666666666 0.0666666666666666
0.8932383333333332 0.1067616666666666 0.0601316666666666
0.8937483333333331 0.1062516666666666 0.0472216666666667
0.9083683333333331 0.0916316666666667 0.0415566666666667
0.9084833333333332 0.0915166666666667 0.0298116666666666
0.9367883333333331 0.0632116666666667 0.0430466666666667
0.9225683333333331 0.0774316666666667 0.0488366666666666
0.9217683333333332 0.0782316666666667 0.0607766666666667
0.8670083333333333 0.1329916666666666 0.0208666666666666
0.9644533333333332 0.0355466666666666 0.0694866666666666
0.7619133333333332 0.3809566666666666 0.1435166666666666
0.8164233333333332 0.4082116666666665 0.1310966666666666
0.8475433333333332 0.4237716666666666 0.1242516666666666
0.9014233333333332 0.4507116666666665 0.1115066666666666
0.7312533333333332 0.3656266666666666 0.1505116666666667
0.9316533333333332 0.4658266666666666 0.1044916666666666
0.7757283333333332 0.4121316666666666 0.1406066666666666
0.8032683333333331 0.4263716666666666 0.1343966666666666
0.8605633333333332 0.4550316666666666 0.1213066666666666
0.8878583333333332 0.4680616666666667 0.1150816666666667
0.8180533333333332 0.4584766666666665 0.1309266666666666
0.8464183333333332 0.4725866666666667 0.1253916666666666
0.8802883333333332 0.2605766666666666 0.0402966666666666
0.8810983333333332 0.2621966666666666 0.0285016666666666
0.8955733333333332 0.2911466666666667 0.0231066666666667
0.9241233333333332 0.3482466666666666 0.0241866666666667
0.9367483333333331 0.3735016666666666 0.0306216666666667
0.9503283333333332 0.4006566666666667 0.0498366666666666
0.9503383333333332 0.4006766666666667 0.0623016666666667
0.9355133333333332 0.3710266666666666 0.0673966666666666
0.9059483333333331 0.3118966666666665 0.0666666666666666
0.8932383333333332 0.2864766666666666 0.0601316666666666
0.8937483333333331 0.2874966666666666 0.0472216666666667
0.9083683333333332 0.3167366666666667 0.0415566666666667
0.9084833333333332 0.3169666666666666 0.0298116666666666
0.9367883333333332 0.3735766666666667 0.0430466666666667
0.9225683333333332 0.3451366666666666 0.0488366666666666
0.9217683333333332 0.3435366666666666 0.0607766666666667
0.8670083333333333 0.2340166666666667 0.0208666666666666
0.9644533333333332 0.4289066666666666 0.0694866666666666
0.6190433333333332 0.3809566666666666 0.1435166666666666
0.5917883333333332 0.4082116666666665 0.1310966666666666
0.5762283333333333 0.4237716666666666 0.1242516666666666
0.5492883333333333 0.4507116666666665 0.1115066666666666
0.6343733333333332 0.3656266666666666 0.1505116666666667
0.5341733333333333 0.4658266666666666 0.1044916666666666
0.5878683333333332 0.3635966666666666 0.1406066666666666
0.5736283333333332 0.3768966666666666 0.1343966666666666
0.5449683333333332 0.4055316666666665 0.1213066666666666
0.5319383333333333 0.4197966666666665 0.1150816666666667
0.5415233333333334 0.3595766666666667 0.1309266666666666
0.5274133333333332 0.3738316666666666 0.1253916666666666
0.7394233333333333 0.1197116666666667 0.0402966666666666
0.7378033333333333 0.1189016666666666 0.0285016666666666
0.7088533333333332 0.1044266666666667 0.0231066666666667
0.6517533333333333 0.0758766666666667 0.0241866666666667
0.6264983333333333 0.0632466666666667 0.0306216666666667
0.5993433333333332 0.0496716666666666 0.0498366666666666
0.5993233333333331 0.0496616666666667 0.0623016666666667
0.6289733333333333 0.0644866666666667 0.0673966666666666
0.6881033333333332 0.0940516666666667 0.0666666666666666
0.7135233333333331 0.1067616666666666 0.0601316666666666
0.7125033333333332 0.1062516666666667 0.0472216666666667
0.6832633333333332 0.0916316666666666 0.0415566666666667
0.6830333333333333 0.0915166666666667 0.0298116666666666
0.6264233333333332 0.0632116666666666 0.0430466666666667
0.6548633333333332 0.0774316666666666 0.0488366666666666
0.6564633333333333 0.0782316666666667 0.0607766666666667
0.7659833333333330 0.1329916666666666 0.0208666666666666
0.5710933333333332 0.0355466666666667 0.0694866666666666
0.6190433333333332 0.2380866666666667 0.1435166666666666
0.5917883333333332 0.1835766666666666 0.1310966666666666
0.5762283333333333 0.1524566666666667 0.1242516666666666
0.5492883333333333 0.0985766666666667 0.1115066666666666
0.6343733333333333 0.2687466666666667 0.1505116666666667
0.5341733333333332 0.0683466666666667 0.1044916666666666
0.6364033333333332 0.2242716666666666 0.1406066666666666
0.6231033333333332 0.1967316666666666 0.1343966666666666
0.5944683333333333 0.1394366666666667 0.1213066666666666
0.5802033333333333 0.1121416666666667 0.1150816666666667
0.6404233333333333 0.1819466666666667 0.1309266666666666
0.6261683333333332 0.1535816666666667 0.1253916666666666
0.5878683333333333 0.2242716666666666 0.1406066666666666
0.5736283333333332 0.1967316666666666 0.1343966666666666
0.5449683333333332 0.1394366666666667 0.1213066666666666
0.5319383333333333 0.1121416666666667 0.1150816666666667
0.5415233333333332 0.1819466666666667 0.1309266666666666
0.5274133333333332 0.1535816666666667 0.1253916666666666
0.7757283333333332 0.3635966666666666 0.1406066666666666
0.8032683333333331 0.3768966666666666 0.1343966666666666
0.8605633333333332 0.4055316666666665 0.1213066666666666
0.8878583333333332 0.4197966666666665 0.1150816666666667
0.8180533333333332 0.3595766666666667 0.1309266666666666
0.8464183333333331 0.3738316666666666 0.1253916666666666
0.6364033333333332 0.4121316666666666 0.1406066666666666
0.6231033333333332 0.4263716666666666 0.1343966666666666
0.5944683333333333 0.4550316666666666 0.1213066666666666
0.5802033333333334 0.4680616666666667 0.1150816666666667
0.6404233333333332 0.4584766666666665 0.1309266666666666
0.6261683333333332 0.4725866666666667 0.1253916666666666
0.8909383333333333 0.4212016666666668 0.1927266666666666
0.8633983333333330 0.4069616666666667 0.1989366666666666
0.8061033333333332 0.3783016666666666 0.2120266666666666
0.7788083333333331 0.3652716666666666 0.2182516666666666
0.8486133333333331 0.3748566666666666 0.2024066666666666
0.8202483333333330 0.3607466666666667 0.2079416666666666
0.5787983333333333 0.4697366666666667 0.1927266666666666
0.5930383333333331 0.4564366666666667 0.1989366666666666
0.6216983333333330 0.4278016666666666 0.2120266666666666
0.6347283333333331 0.4135366666666667 0.2182516666666666
0.6251433333333333 0.4737566666666667 0.2024066666666666
0.6392533333333332 0.4595016666666667 0.2079416666666666
0.5302633333333332 0.1090616666666666 0.1927266666666666
0.5435633333333331 0.1366016666666666 0.1989366666666666
0.5721983333333331 0.1938966666666666 0.2120266666666666
0.5864633333333331 0.2211916666666666 0.2182516666666666
0.5262433333333331 0.1513866666666667 0.2024066666666666
0.5404983333333332 0.1797516666666666 0.2079416666666666
0.6197116666666667 0.3802883333333333 0.4597033333333333
0.6189016666666667 0.3810983333333334 0.4714983333333333
0.6044266666666667 0.3955733333333334 0.4768933333333332
0.5758766666666667 0.4241233333333334 0.4758133333333332
0.5632516666666667 0.4367533333333333 0.4693783333333333
0.5496716666666667 0.4503283333333333 0.4501633333333332
0.5496616666666665 0.4503383333333332 0.4376983333333332
0.5644866666666666 0.4355133333333333 0.4326033333333333
0.5940516666666665 0.4059483333333332 0.4333333333333333
0.6067616666666665 0.3932383333333332 0.4398683333333333
0.6062516666666666 0.3937483333333334 0.4527783333333332
0.5916316666666666 0.4083683333333334 0.4584433333333333
0.5915166666666666 0.4084833333333333 0.4701883333333332
0.5632116666666667 0.4367883333333334 0.4569533333333333
0.5774316666666667 0.4225683333333334 0.4511633333333332
0.5782316666666666 0.4217683333333333 0.4392233333333332
0.6329916666666666 0.3670083333333333 0.4791333333333332
0.5355466666666665 0.4644533333333333 0.4305133333333332
0.8809566666666664 0.2619133333333333 0.3564833333333333
0.9082116666666664 0.3164233333333333 0.3689033333333332
0.9237716666666664 0.3475433333333333 0.3757483333333332
0.9507116666666665 0.4014233333333333 0.3884933333333332
0.8656266666666664 0.2312533333333333 0.3494883333333332
0.9658266666666664 0.4316533333333333 0.3955083333333332
0.9121316666666666 0.2757283333333333 0.3593933333333333
0.9263716666666665 0.3032683333333332 0.3656033333333333
0.9550316666666664 0.3605633333333333 0.3786933333333333
0.9680616666666665 0.3878583333333332 0.3849183333333333
0.9584766666666665 0.3180533333333333 0.3690733333333332
0.9725866666666665 0.3464183333333333 0.3746083333333333
0.6197116666666665 0.2394233333333333 0.4597033333333333
0.6189016666666667 0.2378033333333333 0.4714983333333333
0.6044266666666667 0.2088533333333333 0.4768933333333332
0.5758766666666666 0.1517533333333334 0.4758133333333332
0.5632466666666666 0.1264983333333334 0.4693783333333333
0.5496716666666666 0.0993433333333333 0.4501633333333332
0.5496616666666667 0.0993233333333332 0.4376983333333332
0.5644866666666666 0.1289733333333334 0.4326033333333333
0.5940516666666665 0.1881033333333333 0.4333333333333333
0.6067616666666665 0.2135233333333333 0.4398683333333333
0.6062516666666665 0.2125033333333332 0.4527783333333332
0.5916316666666666 0.1832633333333333 0.4584433333333333
0.5915166666666666 0.1830333333333334 0.4701883333333332
0.5632116666666666 0.1264233333333333 0.4569533333333333
0.5774316666666666 0.1548633333333333 0.4511633333333332
0.5782316666666666 0.1564633333333334 0.4392233333333332
0.6329916666666666 0.2659833333333332 0.4791333333333332
0.5355466666666665 0.0710933333333333 0.4305133333333332
0.7380866666666664 0.1190433333333333 0.3564833333333333
0.6835766666666665 0.0917883333333333 0.3689033333333332
0.6524566666666666 0.0762283333333333 0.3757483333333332
0.5985766666666665 0.0492883333333334 0.3884933333333332
0.7687466666666666 0.1343733333333333 0.3494883333333332
0.5683466666666666 0.0341733333333333 0.3955083333333332
0.7242716666666664 0.1364033333333333 0.3593933333333333
0.6967316666666665 0.1231033333333333 0.3656033333333333
0.6394366666666665 0.0944683333333334 0.3786933333333333
0.6121416666666666 0.0802033333333334 0.3849183333333333
0.6819466666666666 0.1404233333333333 0.3690733333333332
0.6535816666666666 0.1261683333333333 0.3746083333333333
0.7605766666666666 0.3802883333333333 0.4597033333333333
0.7621966666666665 0.3810983333333334 0.4714983333333333
0.7911466666666667 0.3955733333333334 0.4768933333333332
0.8482466666666665 0.4241233333333334 0.4758133333333332
0.8735016666666664 0.4367483333333333 0.4693783333333333
0.9006566666666665 0.4503283333333333 0.4501633333333332
0.9006766666666665 0.4503383333333333 0.4376983333333332
0.8710266666666663 0.4355133333333333 0.4326033333333333
0.8118966666666665 0.4059483333333332 0.4333333333333333
0.7864766666666665 0.3932383333333332 0.4398683333333333
0.7874966666666665 0.3937483333333334 0.4527783333333332
0.8167366666666666 0.4083683333333334 0.4584433333333333
0.8169666666666665 0.4084833333333333 0.4701883333333332
0.8735766666666664 0.4367883333333334 0.4569533333333333
0.8451366666666665 0.4225683333333334 0.4511633333333332
0.8435366666666665 0.4217683333333333 0.4392233333333332
0.7340166666666665 0.3670083333333333 0.4791333333333332
0.9289066666666664 0.4644533333333333 0.4305133333333332
0.8809566666666664 0.1190433333333333 0.3564833333333333
0.9082116666666664 0.0917883333333333 0.3689033333333332
0.9237716666666665 0.0762283333333333 0.3757483333333332
0.9507116666666664 0.0492883333333333 0.3884933333333332
0.8656266666666665 0.1343733333333333 0.3494883333333332
0.9658266666666665 0.0341733333333333 0.3955083333333332
0.8635966666666665 0.0878683333333333 0.3593933333333333
0.8768966666666664 0.0736283333333333 0.3656033333333333
0.9055316666666664 0.0449683333333333 0.3786933333333333
0.9197966666666663 0.0319383333333333 0.3849183333333333
0.8595766666666664 0.0415233333333333 0.3690733333333332
0.8738316666666665 0.0274133333333333 0.3746083333333333
0.7136216666666664 0.2863783333333332 0.2069633333333333
0.7144316666666666 0.2855683333333333 0.1951683333333333
0.7289066666666665 0.2710933333333333 0.1897733333333333
0.7574566666666666 0.2425433333333333 0.1908533333333333
0.7700866666666664 0.2299183333333333 0.1972883333333333
0.7836616666666665 0.2163383333333333 0.2165033333333333
0.7836716666666664 0.2163283333333332 0.2289683333333333
0.7688466666666666 0.2311533333333333 0.2340633333333333
0.7392816666666665 0.2607183333333334 0.2333333333333333
0.7265716666666664 0.2734283333333334 0.2267983333333333
0.7270816666666664 0.2729183333333333 0.2138883333333333
0.7417016666666665 0.2582983333333333 0.2082233333333333
0.7418166666666666 0.2581833333333333 0.1964783333333333
0.7701216666666664 0.2298783333333333 0.2097133333333333
0.7559016666666665 0.2440983333333333 0.2155033333333333
0.7551016666666664 0.2448983333333333 0.2274433333333333
0.7003416666666665 0.2996583333333333 0.1875333333333333
0.7977866666666664 0.2022133333333334 0.2361533333333333
0.5952466666666666 0.0476233333333333 0.3101833333333333
0.6497566666666665 0.0748783333333334 0.2977633333333333
0.6808766666666666 0.0904383333333333 0.2909183333333333
0.7347566666666666 0.1173783333333334 0.2781733333333333
0.5645866666666666 0.0322933333333333 0.3171783333333333
0.7649866666666666 0.1324933333333334 0.2711583333333333
0.6090616666666665 0.0787983333333333 0.3072733333333332
0.6366016666666665 0.0930383333333333 0.3010633333333332
0.6938966666666665 0.1216983333333332 0.2879733333333332
0.7211916666666665 0.1347283333333333 0.2817483333333333
0.6513866666666666 0.1251433333333334 0.2975933333333333
0.6797516666666665 0.1392533333333333 0.2920583333333333
0.7136216666666665 0.4272433333333334 0.2069633333333333
0.7144316666666666 0.4288633333333333 0.1951683333333333
0.7289066666666666 0.4578133333333334 0.1897733333333333
0.7574566666666666 0.0149133333333333 0.1908533333333333
0.7700816666666666 0.0401683333333333 0.1972883333333333
0.7836616666666665 0.0673233333333333 0.2165033333333333
0.7836716666666664 0.0673433333333334 0.2289683333333333
0.7688466666666665 0.0376933333333333 0.2340633333333333
0.7392816666666664 0.4785633333333333 0.2333333333333333
0.7265716666666665 0.4531433333333333 0.2267983333333333
0.7270816666666665 0.4541633333333334 0.2138883333333333
0.7417016666666666 0.4834033333333334 0.2082233333333333
0.7418166666666667 0.4836333333333333 0.1964783333333333
0.7701216666666665 0.0402433333333334 0.2097133333333333
0.7559016666666665 0.0118033333333333 0.2155033333333333
0.7551016666666664 0.0102033333333333 0.2274433333333333
0.7003416666666666 0.4006833333333333 0.1875333333333333
0.7977866666666663 0.0955733333333333 0.2361533333333333
0.9523766666666663 0.0476233333333333 0.3101833333333333
0.9251216666666663 0.0748783333333334 0.2977633333333333
0.9095616666666665 0.0904383333333333 0.2909183333333333
0.8826216666666665 0.1173783333333333 0.2781733333333333
0.9677066666666665 0.0322933333333333 0.3171783333333333
0.8675066666666664 0.1324933333333334 0.2711583333333333
0.9212016666666665 0.0302633333333333 0.3072733333333332
0.9069616666666664 0.0435633333333333 0.3010633333333332
0.8783016666666664 0.0721983333333333 0.2879733333333332
0.8652716666666666 0.0864633333333333 0.2817483333333333
0.8748566666666664 0.0262433333333333 0.2975933333333333
0.8607466666666665 0.0404983333333333 0.2920583333333333
0.5727566666666665 0.2863783333333332 0.2069633333333333
0.5711366666666665 0.2855683333333333 0.1951683333333333
0.5421866666666666 0.2710933333333333 0.1897733333333333
0.9850866666666666 0.2425433333333333 0.1908533333333333
0.9598316666666665 0.2299133333333333 0.1972883333333333
0.9326766666666663 0.2163383333333333 0.2165033333333333
0.9326566666666664 0.2163283333333333 0.2289683333333333
0.9623066666666664 0.2311533333333333 0.2340633333333333
0.5214366666666664 0.2607183333333333 0.2333333333333333
0.5468566666666665 0.2734283333333333 0.2267983333333333
0.5458366666666665 0.2729183333333333 0.2138883333333333
0.5165966666666664 0.2582983333333333 0.2082233333333333
0.5163666666666665 0.2581833333333333 0.1964783333333333
0.9597566666666664 0.2298783333333333 0.2097133333333333
0.9881966666666664 0.2440983333333333 0.2155033333333333
0.9897966666666664 0.2448983333333333 0.2274433333333333
0.5993166666666666 0.2996583333333332 0.1875333333333333
0.9044266666666665 0.2022133333333334 0.2361533333333333
0.9523766666666664 0.4047533333333332 0.3101833333333333
0.9251216666666664 0.3502433333333332 0.2977633333333333
0.9095616666666663 0.3191233333333333 0.2909183333333333
0.8826216666666665 0.2652433333333333 0.2781733333333333
0.9677066666666665 0.4354133333333333 0.3171783333333333
0.8675066666666664 0.2350133333333333 0.2711583333333333
0.9697366666666665 0.3909383333333333 0.3072733333333332
0.9564366666666665 0.3633983333333333 0.3010633333333332
0.9278016666666664 0.3061033333333333 0.2879733333333332
0.9135366666666664 0.2788083333333333 0.2817483333333333
0.9737566666666665 0.3486133333333333 0.2975933333333333
0.9595016666666665 0.3202483333333333 0.2920583333333333
0.9212016666666665 0.3909383333333333 0.3072733333333332
0.9069616666666664 0.3633983333333333 0.3010633333333332
0.8783016666666664 0.3061033333333333 0.2879733333333332
0.8652716666666664 0.2788083333333333 0.2817483333333333
0.8748566666666664 0.3486133333333333 0.2975933333333333
0.8607466666666665 0.3202483333333333 0.2920583333333333
0.6090616666666665 0.0302633333333333 0.3072733333333332
0.6366016666666665 0.0435633333333333 0.3010633333333332
0.6938966666666664 0.0721983333333333 0.2879733333333332
0.7211916666666665 0.0864633333333333 0.2817483333333333
0.6513866666666666 0.0262433333333333 0.2975933333333333
0.6797516666666664 0.0404983333333333 0.2920583333333333
0.9697366666666665 0.0787983333333333 0.3072733333333332
0.9564366666666665 0.0930383333333333 0.3010633333333332
0.9278016666666663 0.1216983333333332 0.2879733333333332
0.9135366666666664 0.1347283333333333 0.2817483333333333
0.9737566666666665 0.1251433333333334 0.2975933333333333
0.9595016666666665 0.1392533333333333 0.2920583333333333
0.7242716666666664 0.0878683333333333 0.3593933333333333
0.6967316666666664 0.0736283333333333 0.3656033333333333
0.6394366666666665 0.0449683333333333 0.3786933333333333
0.6121416666666666 0.0319383333333333 0.3849183333333333
0.6819466666666665 0.0415233333333333 0.3690733333333332
0.6535816666666666 0.0274133333333333 0.3746083333333333
0.9121316666666665 0.1364033333333333 0.3593933333333333
0.9263716666666665 0.1231033333333333 0.3656033333333333
0.9550316666666664 0.0944683333333334 0.3786933333333333
0.9680616666666665 0.0802033333333334 0.3849183333333333
0.9584766666666664 0.1404233333333333 0.3690733333333332
0.9725866666666664 0.1261683333333333 0.3746083333333333
0.8635966666666665 0.2757283333333333 0.3593933333333333
0.8768966666666664 0.3032683333333332 0.3656033333333333
0.9055316666666664 0.3605633333333333 0.3786933333333333
0.9197966666666664 0.3878583333333332 0.3849183333333333
0.8595766666666665 0.3180533333333333 0.3690733333333332
0.8738316666666666 0.3464183333333333 0.3746083333333333
0.9530449999999998 0.0469550000000000 0.6263699999999999
0.9522349999999998 0.0477650000000000 0.6381650000000000
0.9377599999999998 0.0622400000000000 0.6435599999999999
0.9092100000000000 0.0907900000000000 0.6424799999999998
0.8965849999999999 0.1034200000000000 0.6360449999999999
0.8830049999999999 0.1169950000000000 0.6168299999999999
0.8829949999999999 0.1170050000000000 0.6043649999999999
0.8978199999999998 0.1021800000000000 0.5992699999999999
0.9273849999999998 0.0726150000000000 0.5999999999999999
0.9400949999999998 0.0599050000000000 0.6065349999999999
0.9395849999999999 0.0604150000000000 0.6194449999999999
0.9249649999999999 0.0750350000000000 0.6251099999999999
0.9248499999999997 0.0751500000000000 0.6368549999999998
0.8965449999999998 0.1034550000000000 0.6236199999999998
0.9107649999999998 0.0892350000000000 0.6178299999999999
0.9115649999999997 0.0884350000000000 0.6058899999999999
0.9663249999999998 0.0336750000000000 0.6457999999999999
0.8688799999999999 0.1311200000000000 0.5971799999999999
0.7142900000000000 0.4285800000000000 0.5231499999999999
0.7415449999999999 0.4830900000000000 0.5355699999999999
0.7571049999999999 0.0142100000000000 0.5424149999999999
0.7840450000000000 0.0680900000000000 0.5551599999999999
0.6989599999999999 0.3979200000000000 0.5161549999999999
0.7991599999999999 0.0983200000000000 0.5621749999999999
0.7454649999999999 0.4423949999999999 0.5260599999999999
0.7597050000000000 0.4699349999999999 0.5322699999999999
0.7883650000000000 0.0272300000000000 0.5453599999999998
0.8013950000000000 0.0545250000000000 0.5515849999999999
0.7918099999999999 0.4847199999999999 0.5357399999999999
0.8059200000000000 0.0130850000000000 0.5412749999999998
0.9530449999999998 0.4060899999999999 0.6263699999999999
0.9522349999999998 0.4044699999999999 0.6381650000000000
0.9377599999999998 0.3755200000000000 0.6435599999999999
0.9092099999999999 0.3184200000000000 0.6424799999999998
0.8965799999999998 0.2931650000000000 0.6360449999999999
0.8830049999999998 0.2660099999999999 0.6168299999999999
0.8829949999999999 0.2659899999999999 0.6043649999999999
0.8978199999999998 0.2956400000000000 0.5992699999999999
0.9273849999999999 0.3547700000000000 0.5999999999999999
0.9400949999999999 0.3801900000000000 0.6065349999999999
0.9395849999999999 0.3791700000000000 0.6194449999999999
0.9249649999999998 0.3499300000000000 0.6251099999999999
0.9248499999999998 0.3497000000000000 0.6368549999999998
0.8965449999999997 0.2930900000000000 0.6236199999999998
0.9107649999999998 0.3215300000000000 0.6178299999999999
0.9115649999999997 0.3231300000000000 0.6058899999999999
0.9663249999999999 0.4326499999999999 0.6457999999999999
0.8688799999999999 0.2377600000000000 0.5971799999999999
0.5714199999999999 0.2857100000000000 0.5231499999999999
0.5169100000000000 0.2584550000000000 0.5355699999999999
0.9857899999999999 0.2428950000000000 0.5424149999999999
0.9319100000000000 0.2159550000000000 0.5551599999999999
0.6020799999999999 0.3010399999999999 0.5161549999999999
0.9016799999999999 0.2008400000000000 0.5621749999999999
0.5576050000000000 0.3030700000000000 0.5260599999999999
0.5300650000000000 0.2897700000000000 0.5322699999999999
0.9727699999999999 0.2611350000000000 0.5453599999999998
0.9454750000000001 0.2468700000000000 0.5515849999999999
0.5152800000000000 0.3070900000000000 0.5357399999999999
0.9869150000000000 0.2928350000000000 0.5412749999999998
0.5939099999999999 0.0469550000000000 0.6263699999999999
0.5955299999999999 0.0477650000000000 0.6381650000000000
0.6244799999999999 0.0622400000000000 0.6435599999999999
0.6815799999999999 0.0907900000000000 0.6424799999999998
0.7068349999999999 0.1034150000000000 0.6360449999999999
0.7339899999999999 0.1169950000000000 0.6168299999999999
0.7340099999999999 0.1170050000000000 0.6043649999999999
0.7043599999999999 0.1021800000000000 0.5992699999999999
0.6452299999999997 0.0726150000000000 0.5999999999999999
0.6198099999999999 0.0599050000000000 0.6065349999999999
0.6208299999999999 0.0604150000000000 0.6194449999999999
0.6500699999999999 0.0750350000000000 0.6251099999999999
0.6502999999999999 0.0751500000000000 0.6368549999999998
0.7069099999999999 0.1034550000000000 0.6236199999999998
0.6784699999999998 0.0892350000000000 0.6178299999999999
0.6768699999999999 0.0884350000000000 0.6058899999999999
0.5673499999999999 0.0336750000000000 0.6457999999999999
0.7622399999999999 0.1311200000000000 0.5971799999999999
0.7142899999999999 0.2857100000000000 0.5231499999999999
0.7415449999999999 0.2584550000000000 0.5355699999999999
0.7571049999999999 0.2428950000000000 0.5424149999999999
0.7840450000000000 0.2159550000000000 0.5551599999999999
0.6989599999999999 0.3010399999999999 0.5161549999999999
0.7991600000000001 0.2008400000000000 0.5621749999999999
0.6969299999999999 0.2545350000000000 0.5260599999999999
0.7102299999999999 0.2402950000000000 0.5322699999999999
0.7388650000000000 0.2116350000000000 0.5453599999999998
0.7531299999999999 0.1986049999999999 0.5515849999999999
0.6929099999999999 0.2081900000000000 0.5357399999999999
0.7071649999999999 0.1940800000000000 0.5412749999999998
0.5469549999999999 0.4530450000000000 0.8736299999999999
0.5477649999999999 0.4522350000000000 0.8618349999999999
0.5622399999999999 0.4377600000000000 0.8564399999999998
0.5907900000000000 0.4092100000000001 0.8575199999999998
0.6034200000000000 0.3965850000000000 0.8639549999999998
0.6169950000000000 0.3830050000000000 0.8831699999999999
0.6170049999999999 0.3829949999999999 0.8956349999999997
0.6021800000000000 0.3978200000000000 0.9007299999999999
0.5726150000000000 0.4273850000000000 0.8999999999999999
0.5599050000000000 0.4400950000000000 0.8934649999999997
0.5604149999999999 0.4395849999999999 0.8805549999999998
0.5750350000000000 0.4249650000000000 0.8748899999999997
0.5751499999999999 0.4248500000000000 0.8631449999999998
0.6034550000000000 0.3965450000000000 0.8763799999999998
0.5892349999999998 0.4107649999999999 0.8821699999999999
0.5884350000000000 0.4115650000000000 0.8941099999999998
0.5336749999999999 0.4663250000000000 0.8541999999999997
0.6311199999999999 0.3688799999999999 0.9028199999999998
0.9285799999999998 0.2142900000000000 0.9768499999999999
0.9830899999999999 0.2415450000000000 0.9644299999999998
0.5142100000000001 0.2571050000000000 0.9575849999999998
0.5680900000000000 0.2840449999999999 0.9448399999999999
0.8979199999999999 0.1989600000000000 0.9838449999999999
0.5983200000000000 0.2991599999999999 0.9378249999999998
0.9423949999999999 0.2454650000000000 0.9739399999999999
0.9699349999999999 0.2597050000000000 0.9677299999999999
0.5272300000000000 0.2883649999999999 0.9546399999999997
0.5545250000000000 0.3013950000000000 0.9484149999999998
0.9847199999999999 0.2918100000000000 0.9642599999999999
0.5130850000000000 0.3059200000000000 0.9587249999999999
0.5469550000000001 0.0939100000000000 0.8736299999999999
0.5477650000000001 0.0955300000000000 0.8618349999999999
0.5622400000000001 0.1244800000000000 0.8564399999999998
0.5907899999999999 0.1815800000000000 0.8575199999999998
0.6034150000000000 0.2068350000000000 0.8639549999999998
0.6169950000000000 0.2339900000000000 0.8831699999999999
0.6170050000000000 0.2340100000000000 0.8956349999999997
0.6021799999999999 0.2043600000000000 0.9007299999999999
0.5726149999999999 0.1452299999999999 0.8999999999999999
0.5599049999999999 0.1198100000000000 0.8934649999999997
0.5604149999999999 0.1208300000000000 0.8805549999999998
0.5750350000000000 0.1500700000000000 0.8748899999999997
0.5751500000000001 0.1503000000000000 0.8631449999999998
0.6034550000000000 0.2069100000000000 0.8763799999999998
0.5892350000000000 0.1784700000000000 0.8821699999999999
0.5884350000000000 0.1768699999999999 0.8941099999999998
0.5336749999999999 0.0673500000000000 0.8541999999999997
0.6311199999999999 0.2622400000000000 0.9028199999999998
0.7857099999999999 0.2142900000000000 0.9768499999999999
0.7584549999999999 0.2415450000000000 0.9644299999999998
0.7428950000000000 0.2571050000000000 0.9575849999999998
0.7159550000000000 0.2840449999999999 0.9448399999999999
0.8010399999999999 0.1989600000000000 0.9838449999999999
0.7008399999999999 0.2991600000000000 0.9378249999999998
0.7545349999999998 0.1969300000000000 0.9739399999999999
0.7402949999999999 0.2102300000000000 0.9677299999999999
0.7116349999999999 0.2388650000000000 0.9546399999999997
0.6986049999999998 0.2531299999999999 0.9484149999999998
0.7081900000000000 0.1929100000000000 0.9642599999999999
0.6940799999999999 0.2071649999999999 0.9587249999999999
0.9060899999999998 0.4530450000000000 0.8736299999999999
0.9044699999999999 0.4522350000000000 0.8618349999999999
0.8755199999999999 0.4377600000000000 0.8564399999999998
0.8184199999999999 0.4092100000000001 0.8575199999999998
0.7931649999999999 0.3965800000000000 0.8639549999999998
0.7660099999999999 0.3830050000000000 0.8831699999999999
0.7659899999999998 0.3829949999999999 0.8956349999999997
0.7956399999999999 0.3978200000000000 0.9007299999999999
0.8547699999999999 0.4273850000000000 0.8999999999999999
0.8801899999999999 0.4400950000000000 0.8934649999999997
0.8791700000000000 0.4395849999999999 0.8805549999999998
0.8499299999999999 0.4249650000000000 0.8748899999999997
0.8496999999999999 0.4248500000000000 0.8631449999999998
0.7930899999999999 0.3965450000000000 0.8763799999999998
0.8215299999999999 0.4107649999999999 0.8821699999999999
0.8231300000000000 0.4115650000000000 0.8941099999999998
0.9326499999999999 0.4663250000000000 0.8541999999999997
0.7377599999999999 0.3688799999999999 0.9028199999999998
0.7857100000000000 0.0714200000000000 0.9768499999999999
0.7584550000000000 0.0169100000000000 0.9644299999999998
0.7428950000000000 0.4857899999999999 0.9575849999999998
0.7159550000000000 0.4319100000000000 0.9448399999999999
0.8010399999999999 0.1020800000000000 0.9838449999999999
0.7008399999999998 0.4016799999999999 0.9378249999999998
0.8030699999999998 0.0576050000000000 0.9739399999999999
0.7897700000000000 0.0300650000000000 0.9677299999999999
0.7611350000000000 0.4727700000000000 0.9546399999999997
0.7468699999999999 0.4454750000000000 0.9484149999999998
0.8070900000000000 0.0152800000000000 0.9642599999999999
0.7928349999999998 0.4869149999999999 0.9587249999999999
0.7545349999999998 0.0576050000000000 0.9739399999999999
0.7402949999999998 0.0300650000000000 0.9677299999999999
0.7116350000000000 0.4727700000000000 0.9546399999999997
0.6986049999999998 0.4454750000000000 0.9484149999999998
0.7081899999999999 0.0152800000000000 0.9642599999999999
0.6940799999999999 0.4869149999999999 0.9587249999999999
0.9423949999999999 0.1969300000000000 0.9739399999999999
0.9699349999999999 0.2102300000000000 0.9677299999999999
0.5272300000000000 0.2388650000000000 0.9546399999999997
0.5545250000000000 0.2531299999999999 0.9484149999999998
0.9847199999999999 0.1929100000000000 0.9642599999999999
0.5130850000000000 0.2071649999999999 0.9587249999999999
0.8030699999999998 0.2454650000000000 0.9739399999999999
0.7897700000000000 0.2597050000000000 0.9677299999999999
0.7611349999999999 0.2883649999999999 0.9546399999999997
0.7468699999999999 0.3013950000000000 0.9484149999999998
0.8070900000000001 0.2918100000000000 0.9642599999999999
0.7928349999999998 0.3059200000000000 0.9587249999999999
0.5576050000000000 0.2545350000000000 0.5260599999999999
0.5300650000000000 0.2402950000000000 0.5322699999999999
0.9727700000000000 0.2116350000000000 0.5453599999999998
0.9454750000000000 0.1986049999999999 0.5515849999999999
0.5152799999999998 0.2081900000000000 0.5357399999999999
0.9869150000000000 0.1940800000000000 0.5412749999999998
0.7454649999999999 0.3030700000000000 0.5260599999999999
0.7597050000000000 0.2897700000000000 0.5322699999999999
0.7883649999999999 0.2611350000000000 0.5453599999999998
0.8013950000000000 0.2468700000000000 0.5515849999999999
0.7918099999999999 0.3070900000000000 0.5357399999999999
0.8059199999999999 0.2928350000000000 0.5412749999999998
0.6969300000000000 0.4423949999999999 0.5260599999999999
0.7102299999999998 0.4699349999999999 0.5322699999999999
0.7388650000000000 0.0272300000000000 0.5453599999999998
0.7531300000000000 0.0545250000000000 0.5515849999999999
0.6929099999999998 0.4847199999999999 0.5357399999999999
0.7071650000000000 0.0130850000000000 0.5412749999999998
0.7863783333333333 0.2136216666666667 0.7930366666666664
0.7855683333333333 0.2144316666666666 0.8048316666666665
0.7710933333333332 0.2289066666666666 0.8102266666666665
0.7425433333333332 0.2574566666666667 0.8091466666666666
0.7299183333333332 0.2700866666666666 0.8027116666666666
0.7163383333333332 0.2836616666666666 0.7834966666666665
0.7163283333333331 0.2836716666666666 0.7710316666666666
0.7311533333333332 0.2688466666666667 0.7659366666666666
0.7607183333333332 0.2392816666666666 0.7666666666666664
0.7734283333333333 0.2265716666666667 0.7732016666666666
0.7729183333333334 0.2270816666666667 0.7861116666666665
0.7582983333333332 0.2417016666666666 0.7917766666666666
0.7581833333333332 0.2418166666666666 0.8035216666666666
0.7298783333333332 0.2701216666666666 0.7902866666666664
0.7440983333333332 0.2559016666666666 0.7844966666666665
0.7448983333333332 0.2551016666666667 0.7725566666666666
0.7996583333333332 0.2003416666666667 0.8124666666666666
0.7022133333333331 0.2977866666666666 0.7638466666666665
0.5476233333333332 0.0952466666666667 0.6898166666666664
0.5748783333333333 0.1497566666666667 0.7022366666666665
0.5904383333333332 0.1808766666666667 0.7090816666666665
0.6173783333333333 0.2347566666666667 0.7218266666666665
0.5322933333333331 0.0645866666666667 0.6828216666666665
0.6324933333333332 0.2649866666666666 0.7288416666666665
0.5787983333333332 0.1090616666666666 0.6927266666666666
0.5930383333333331 0.1366016666666666 0.6989366666666664
0.6216983333333331 0.1938966666666667 0.7120266666666665
0.6347283333333331 0.2211916666666666 0.7182516666666665
0.6251433333333333 0.1513866666666667 0.7024066666666665
0.6392533333333332 0.1797516666666666 0.7079416666666666
0.7863783333333333 0.0727566666666666 0.7930366666666664
0.7855683333333333 0.0711366666666666 0.8048316666666665
0.7710933333333333 0.0421866666666666 0.8102266666666665
0.7425433333333332 0.4850866666666667 0.8091466666666666
0.7299133333333333 0.4598316666666666 0.8027116666666666
0.7163383333333333 0.4326766666666666 0.7834966666666665
0.7163283333333333 0.4326566666666666 0.7710316666666666
0.7311533333333332 0.4623066666666666 0.7659366666666666
0.7607183333333333 0.0214366666666667 0.7666666666666664
0.7734283333333333 0.0468566666666667 0.7732016666666666
0.7729183333333333 0.0458366666666666 0.7861116666666665
0.7582983333333333 0.0165966666666666 0.7917766666666666
0.7581833333333333 0.0163666666666666 0.8035216666666666
0.7298783333333333 0.4597566666666666 0.7902866666666664
0.7440983333333333 0.4881966666666666 0.7844966666666665
0.7448983333333332 0.4897966666666667 0.7725566666666666
0.7996583333333332 0.0993166666666666 0.8124666666666666
0.7022133333333332 0.4044266666666667 0.7638466666666665
0.9047533333333331 0.4523766666666666 0.6898166666666664
0.8502433333333330 0.4251216666666665 0.7022366666666665
0.8191233333333331 0.4095616666666665 0.7090816666666665
0.7652433333333331 0.3826216666666665 0.7218266666666665
0.9354133333333332 0.4677066666666666 0.6828216666666665
0.7350133333333332 0.3675066666666666 0.7288416666666665
0.8909383333333333 0.4697366666666666 0.6927266666666666
0.8633983333333330 0.4564366666666666 0.6989366666666664
0.8061033333333332 0.4278016666666665 0.7120266666666665
0.7788083333333331 0.4135366666666666 0.7182516666666665
0.8486133333333331 0.4737566666666667 0.7024066666666665
0.8202483333333330 0.4595016666666666 0.7079416666666666
0.9272433333333333 0.2136216666666667 0.7930366666666664
0.9288633333333333 0.2144316666666667 0.8048316666666665
0.9578133333333333 0.2289066666666667 0.8102266666666665
0.5149133333333333 0.2574566666666667 0.8091466666666666
0.5401683333333334 0.2700816666666667 0.8027116666666666
0.5673233333333333 0.2836616666666666 0.7834966666666665
0.5673433333333332 0.2836716666666666 0.7710316666666666
0.5376933333333332 0.2688466666666667 0.7659366666666666
0.9785633333333331 0.2392816666666666 0.7666666666666664
0.9531433333333331 0.2265716666666666 0.7732016666666666
0.9541633333333331 0.2270816666666666 0.7861116666666665
0.9834033333333333 0.2417016666666667 0.7917766666666666
0.9836333333333332 0.2418166666666667 0.8035216666666666
0.5402433333333333 0.2701216666666666 0.7902866666666664
0.5118033333333333 0.2559016666666666 0.7844966666666665
0.5102033333333332 0.2551016666666667 0.7725566666666666
0.9006833333333332 0.2003416666666667 0.8124666666666666
0.5955733333333332 0.2977866666666666 0.7638466666666665
0.5476233333333332 0.4523766666666666 0.6898166666666664
0.5748783333333332 0.4251216666666665 0.7022366666666665
0.5904383333333333 0.4095616666666666 0.7090816666666665
0.6173783333333331 0.3826216666666665 0.7218266666666665
0.5322933333333332 0.4677066666666666 0.6828216666666665
0.6324933333333332 0.3675066666666666 0.7288416666666665
0.5302633333333332 0.4212016666666667 0.6927266666666666
0.5435633333333332 0.4069616666666666 0.6989366666666664
0.5721983333333333 0.3783016666666665 0.7120266666666665
0.5864633333333332 0.3652716666666666 0.7182516666666665
0.5262433333333332 0.3748566666666665 0.7024066666666665
0.5404983333333332 0.3607466666666667 0.7079416666666666
0.8802883333333333 0.1197116666666667 0.5402966666666665
0.8810983333333332 0.1189016666666667 0.5285016666666665
0.8955733333333332 0.1044266666666667 0.5231066666666665
0.9241233333333333 0.0758766666666667 0.5241866666666666
0.9367533333333332 0.0632516666666667 0.5306216666666665
0.9503283333333332 0.0496716666666667 0.5498366666666665
0.9503383333333332 0.0496616666666666 0.5623016666666666
0.9355133333333333 0.0644866666666667 0.5673966666666665
0.9059483333333334 0.0940516666666667 0.5666666666666665
0.8932383333333334 0.1067616666666667 0.5601316666666666
0.8937483333333333 0.1062516666666666 0.5472216666666666
0.9083683333333332 0.0916316666666667 0.5415566666666666
0.9084833333333333 0.0915166666666667 0.5298116666666666
0.9367883333333332 0.0632116666666667 0.5430466666666666
0.9225683333333332 0.0774316666666667 0.5488366666666665
0.9217683333333333 0.0782316666666667 0.5607766666666666
0.8670083333333334 0.1329916666666666 0.5208666666666665
0.9644533333333333 0.0355466666666666 0.5694866666666667
0.7619133333333331 0.3809566666666666 0.6435166666666665
0.8164233333333331 0.4082116666666666 0.6310966666666665
0.8475433333333332 0.4237716666666667 0.6242516666666665
0.9014233333333331 0.4507116666666666 0.6115066666666665
0.7312533333333331 0.3656266666666667 0.6505116666666665
0.9316533333333332 0.4658266666666666 0.6044916666666665
0.7757283333333332 0.4121316666666667 0.6406066666666665
0.8032683333333331 0.4263716666666667 0.6343966666666665
0.8605633333333331 0.4550316666666666 0.6213066666666666
0.8878583333333332 0.4680616666666667 0.6150816666666666
0.8180533333333331 0.4584766666666666 0.6309266666666665
0.8464183333333331 0.4725866666666667 0.6253916666666666
0.8802883333333333 0.2605766666666666 0.5402966666666665
0.8810983333333333 0.2621966666666666 0.5285016666666665
0.8955733333333333 0.2911466666666667 0.5231066666666665
0.9241233333333333 0.3482466666666666 0.5241866666666666
0.9367483333333333 0.3735016666666666 0.5306216666666665
0.9503283333333333 0.4006566666666667 0.5498366666666665
0.9503383333333333 0.4006766666666666 0.5623016666666666
0.9355133333333333 0.3710266666666666 0.5673966666666665
0.9059483333333332 0.3118966666666665 0.5666666666666665
0.8932383333333332 0.2864766666666666 0.5601316666666666
0.8937483333333333 0.2874966666666666 0.5472216666666666
0.9083683333333333 0.3167366666666667 0.5415566666666666
0.9084833333333333 0.3169666666666666 0.5298116666666666
0.9367883333333333 0.3735766666666667 0.5430466666666666
0.9225683333333333 0.3451366666666666 0.5488366666666665
0.9217683333333333 0.3435366666666666 0.5607766666666666
0.8670083333333334 0.2340166666666667 0.5208666666666665
0.9644533333333333 0.4289066666666666 0.5694866666666667
0.6190433333333331 0.3809566666666666 0.6435166666666665
0.5917883333333332 0.4082116666666666 0.6310966666666665
0.5762283333333332 0.4237716666666667 0.6242516666666665
0.5492883333333332 0.4507116666666666 0.6115066666666665
0.6343733333333332 0.3656266666666667 0.6505116666666665
0.5341733333333333 0.4658266666666667 0.6044916666666665
0.5878683333333332 0.3635966666666667 0.6406066666666665
0.5736283333333332 0.3768966666666667 0.6343966666666665
0.5449683333333332 0.4055316666666666 0.6213066666666666
0.5319383333333332 0.4197966666666666 0.6150816666666666
0.5415233333333332 0.3595766666666667 0.6309266666666665
0.5274133333333332 0.3738316666666667 0.6253916666666666
0.7394233333333333 0.1197116666666667 0.5402966666666665
0.7378033333333334 0.1189016666666666 0.5285016666666665
0.7088533333333333 0.1044266666666667 0.5231066666666665
0.6517533333333333 0.0758766666666666 0.5241866666666666
0.6264983333333333 0.0632466666666666 0.5306216666666665
0.5993433333333332 0.0496716666666667 0.5498366666666665
0.5993233333333332 0.0496616666666667 0.5623016666666666
0.6289733333333333 0.0644866666666667 0.5673966666666665
0.6881033333333333 0.0940516666666667 0.5666666666666665
0.7135233333333332 0.1067616666666667 0.5601316666666666
0.7125033333333333 0.1062516666666666 0.5472216666666666
0.6832633333333332 0.0916316666666667 0.5415566666666666
0.6830333333333333 0.0915166666666666 0.5298116666666666
0.6264233333333332 0.0632116666666667 0.5430466666666666
0.6548633333333334 0.0774316666666667 0.5488366666666665
0.6564633333333334 0.0782316666666667 0.5607766666666666
0.7659833333333331 0.1329916666666667 0.5208666666666665
0.5710933333333333 0.0355466666666667 0.5694866666666667
0.6190433333333332 0.2380866666666666 0.6435166666666665
0.5917883333333332 0.1835766666666666 0.6310966666666665
0.5762283333333332 0.1524566666666667 0.6242516666666665
0.5492883333333333 0.0985766666666667 0.6115066666666665
0.6343733333333332 0.2687466666666667 0.6505116666666665
0.5341733333333331 0.0683466666666667 0.6044916666666665
0.6364033333333331 0.2242716666666666 0.6406066666666665
0.6231033333333331 0.1967316666666666 0.6343966666666665
0.5944683333333332 0.1394366666666667 0.6213066666666666
0.5802033333333333 0.1121416666666667 0.6150816666666666
0.6404233333333332 0.1819466666666667 0.6309266666666665
0.6261683333333332 0.1535816666666667 0.6253916666666666
0.5878683333333332 0.2242716666666666 0.6406066666666665
0.5736283333333331 0.1967316666666666 0.6343966666666665
0.5449683333333331 0.1394366666666667 0.6213066666666666
0.5319383333333332 0.1121416666666667 0.6150816666666666
0.5415233333333332 0.1819466666666667 0.6309266666666665
0.5274133333333332 0.1535816666666667 0.6253916666666666
0.7757283333333332 0.3635966666666667 0.6406066666666665
0.8032683333333330 0.3768966666666667 0.6343966666666665
0.8605633333333332 0.4055316666666666 0.6213066666666666
0.8878583333333332 0.4197966666666666 0.6150816666666666
0.8180533333333331 0.3595766666666667 0.6309266666666665
0.8464183333333331 0.3738316666666667 0.6253916666666666
0.6364033333333332 0.4121316666666667 0.6406066666666665
0.6231033333333332 0.4263716666666667 0.6343966666666665
0.5944683333333333 0.4550316666666666 0.6213066666666666
0.5802033333333333 0.4680616666666667 0.6150816666666666
0.6404233333333331 0.4584766666666666 0.6309266666666665
0.6261683333333332 0.4725866666666667 0.6253916666666666
0.8909383333333333 0.4212016666666667 0.6927266666666666
0.8633983333333330 0.4069616666666666 0.6989366666666664
0.8061033333333332 0.3783016666666665 0.7120266666666665
0.7788083333333331 0.3652716666666666 0.7182516666666665
0.8486133333333331 0.3748566666666665 0.7024066666666665
0.8202483333333331 0.3607466666666667 0.7079416666666666
0.5787983333333332 0.4697366666666666 0.6927266666666666
0.5930383333333331 0.4564366666666666 0.6989366666666664
0.6216983333333330 0.4278016666666665 0.7120266666666665
0.6347283333333331 0.4135366666666666 0.7182516666666665
0.6251433333333333 0.4737566666666667 0.7024066666666665
0.6392533333333332 0.4595016666666666 0.7079416666666666
0.5302633333333331 0.1090616666666666 0.6927266666666666
0.5435633333333331 0.1366016666666666 0.6989366666666664
0.5721983333333333 0.1938966666666667 0.7120266666666665
0.5864633333333332 0.2211916666666666 0.7182516666666665
0.5262433333333332 0.1513866666666667 0.7024066666666665
0.5404983333333332 0.1797516666666666 0.7079416666666666
0.6197116666666667 0.3802883333333333 0.9597033333333332
0.6189016666666666 0.3810983333333333 0.9714983333333331
0.6044266666666667 0.3955733333333333 0.9768933333333331
0.5758766666666667 0.4241233333333332 0.9758133333333331
0.5632516666666667 0.4367533333333332 0.9693783333333331
0.5496716666666667 0.4503283333333333 0.9501633333333330
0.5496616666666666 0.4503383333333332 0.9376983333333331
0.5644866666666667 0.4355133333333333 0.9326033333333331
0.5940516666666665 0.4059483333333332 0.9333333333333332
0.6067616666666666 0.3932383333333332 0.9398683333333331
0.6062516666666666 0.3937483333333333 0.9527783333333331
0.5916316666666667 0.4083683333333333 0.9584433333333331
0.5915166666666666 0.4084833333333333 0.9701883333333331
0.5632116666666667 0.4367883333333333 0.9569533333333332
0.5774316666666667 0.4225683333333333 0.9511633333333332
0.5782316666666667 0.4217683333333332 0.9392233333333332
0.6329916666666666 0.3670083333333333 0.9791333333333331
0.5355466666666666 0.4644533333333333 0.9305133333333332
0.8809566666666665 0.2619133333333333 0.8564833333333332
0.9082116666666665 0.3164233333333333 0.8689033333333332
0.9237716666666665 0.3475433333333333 0.8757483333333332
0.9507116666666666 0.4014233333333334 0.8884933333333332
0.8656266666666665 0.2312533333333333 0.8494883333333331
0.9658266666666665 0.4316533333333333 0.8955083333333331
0.9121316666666667 0.2757283333333334 0.8593933333333332
0.9263716666666666 0.3032683333333333 0.8656033333333332
0.9550316666666665 0.3605633333333333 0.8786933333333332
0.9680616666666666 0.3878583333333333 0.8849183333333331
0.9584766666666665 0.3180533333333333 0.8690733333333333
0.9725866666666665 0.3464183333333333 0.8746083333333332
0.6197116666666665 0.2394233333333333 0.9597033333333332
0.6189016666666667 0.2378033333333334 0.9714983333333331
0.6044266666666667 0.2088533333333333 0.9768933333333331
0.5758766666666666 0.1517533333333334 0.9758133333333331
0.5632466666666667 0.1264983333333334 0.9693783333333331
0.5496716666666667 0.0993433333333333 0.9501633333333330
0.5496616666666667 0.0993233333333332 0.9376983333333331
0.5644866666666666 0.1289733333333334 0.9326033333333331
0.5940516666666665 0.1881033333333333 0.9333333333333332
0.6067616666666665 0.2135233333333333 0.9398683333333331
0.6062516666666665 0.2125033333333332 0.9527783333333331
0.5916316666666666 0.1832633333333333 0.9584433333333331
0.5915166666666666 0.1830333333333334 0.9701883333333331
0.5632116666666666 0.1264233333333333 0.9569533333333332
0.5774316666666666 0.1548633333333334 0.9511633333333332
0.5782316666666666 0.1564633333333334 0.9392233333333332
0.6329916666666666 0.2659833333333332 0.9791333333333331
0.5355466666666665 0.0710933333333333 0.9305133333333332
0.7380866666666666 0.1190433333333333 0.8564833333333332
0.6835766666666665 0.0917883333333333 0.8689033333333332
0.6524566666666666 0.0762283333333333 0.8757483333333332
0.5985766666666666 0.0492883333333334 0.8884933333333332
0.7687466666666667 0.1343733333333333 0.8494883333333331
0.5683466666666666 0.0341733333333333 0.8955083333333331
0.7242716666666665 0.1364033333333333 0.8593933333333332
0.6967316666666665 0.1231033333333333 0.8656033333333332
0.6394366666666665 0.0944683333333334 0.8786933333333332
0.6121416666666667 0.0802033333333334 0.8849183333333331
0.6819466666666666 0.1404233333333333 0.8690733333333333
0.6535816666666666 0.1261683333333333 0.8746083333333332
0.7605766666666666 0.3802883333333333 0.9597033333333332
0.7621966666666665 0.3810983333333333 0.9714983333333331
0.7911466666666667 0.3955733333333333 0.9768933333333331
0.8482466666666665 0.4241233333333332 0.9758133333333331
0.8735016666666665 0.4367483333333332 0.9693783333333331
0.9006566666666665 0.4503283333333333 0.9501633333333330
0.9006766666666666 0.4503383333333333 0.9376983333333331
0.8710266666666664 0.4355133333333333 0.9326033333333331
0.8118966666666665 0.4059483333333332 0.9333333333333332
0.7864766666666665 0.3932383333333332 0.9398683333333331
0.7874966666666665 0.3937483333333333 0.9527783333333331
0.8167366666666667 0.4083683333333333 0.9584433333333331
0.8169666666666665 0.4084833333333333 0.9701883333333331
0.8735766666666666 0.4367883333333333 0.9569533333333332
0.8451366666666665 0.4225683333333333 0.9511633333333332
0.8435366666666665 0.4217683333333332 0.9392233333333332
0.7340166666666667 0.3670083333333333 0.9791333333333331
0.9289066666666665 0.4644533333333333 0.9305133333333332
0.8809566666666665 0.1190433333333333 0.8564833333333332
0.9082116666666665 0.0917883333333333 0.8689033333333332
0.9237716666666667 0.0762283333333333 0.8757483333333332
0.9507116666666665 0.0492883333333333 0.8884933333333332
0.8656266666666667 0.1343733333333333 0.8494883333333331
0.9658266666666666 0.0341733333333333 0.8955083333333331
0.8635966666666666 0.0878683333333333 0.8593933333333332
0.8768966666666665 0.0736283333333333 0.8656033333333332
0.9055316666666665 0.0449683333333333 0.8786933333333332
0.9197966666666664 0.0319383333333333 0.8849183333333331
0.8595766666666665 0.0415233333333333 0.8690733333333333
0.8738316666666666 0.0274133333333333 0.8746083333333332
0.7136216666666665 0.2863783333333332 0.7069633333333332
0.7144316666666666 0.2855683333333333 0.6951683333333332
0.7289066666666665 0.2710933333333334 0.6897733333333332
0.7574566666666664 0.2425433333333333 0.6908533333333332
0.7700866666666664 0.2299183333333333 0.6972883333333332
0.7836616666666666 0.2163383333333333 0.7165033333333332
0.7836716666666665 0.2163283333333332 0.7289683333333332
0.7688466666666667 0.2311533333333333 0.7340633333333332
0.7392816666666665 0.2607183333333333 0.7333333333333332
0.7265716666666664 0.2734283333333334 0.7267983333333332
0.7270816666666664 0.2729183333333333 0.7138883333333332
0.7417016666666666 0.2582983333333333 0.7082233333333332
0.7418166666666666 0.2581833333333333 0.6964783333333332
0.7701216666666665 0.2298783333333333 0.7097133333333332
0.7559016666666666 0.2440983333333333 0.7155033333333333
0.7551016666666664 0.2448983333333333 0.7274433333333332
0.7003416666666664 0.2996583333333334 0.6875333333333332
0.7977866666666665 0.2022133333333334 0.7361533333333332
0.5952466666666666 0.0476233333333334 0.8101833333333331
0.6497566666666665 0.0748783333333334 0.7977633333333333
0.6808766666666666 0.0904383333333333 0.7909183333333333
0.7347566666666666 0.1173783333333334 0.7781733333333332
0.5645866666666667 0.0322933333333333 0.8171783333333332
0.7649866666666667 0.1324933333333333 0.7711583333333333
0.6090616666666665 0.0787983333333333 0.8072733333333332
0.6366016666666665 0.0930383333333333 0.8010633333333331
0.6938966666666666 0.1216983333333332 0.7879733333333332
0.7211916666666666 0.1347283333333333 0.7817483333333332
0.6513866666666666 0.1251433333333334 0.7975933333333332
0.6797516666666665 0.1392533333333333 0.7920583333333332
0.7136216666666665 0.4272433333333333 0.7069633333333332
0.7144316666666665 0.4288633333333333 0.6951683333333332
0.7289066666666665 0.4578133333333333 0.6897733333333332
0.7574566666666666 0.0149133333333333 0.6908533333333332
0.7700816666666666 0.0401683333333333 0.6972883333333332
0.7836616666666666 0.0673233333333333 0.7165033333333332
0.7836716666666664 0.0673433333333334 0.7289683333333332
0.7688466666666666 0.0376933333333333 0.7340633333333332
0.7392816666666664 0.4785633333333332 0.7333333333333332
0.7265716666666665 0.4531433333333332 0.7267983333333332
0.7270816666666665 0.4541633333333333 0.7138883333333332
0.7417016666666666 0.4834033333333333 0.7082233333333332
0.7418166666666666 0.4836333333333332 0.6964783333333332
0.7701216666666666 0.0402433333333333 0.7097133333333332
0.7559016666666666 0.0118033333333333 0.7155033333333333
0.7551016666666666 0.0102033333333333 0.7274433333333332
0.7003416666666665 0.4006833333333333 0.6875333333333332
0.7977866666666664 0.0955733333333333 0.7361533333333332
0.9523766666666664 0.0476233333333334 0.8101833333333331
0.9251216666666664 0.0748783333333334 0.7977633333333333
0.9095616666666665 0.0904383333333333 0.7909183333333333
0.8826216666666665 0.1173783333333333 0.7781733333333332
0.9677066666666666 0.0322933333333333 0.8171783333333332
0.8675066666666665 0.1324933333333333 0.7711583333333333
0.9212016666666666 0.0302633333333333 0.8072733333333332
0.9069616666666666 0.0435633333333333 0.8010633333333331
0.8783016666666665 0.0721983333333333 0.7879733333333332
0.8652716666666666 0.0864633333333333 0.7817483333333332
0.8748566666666665 0.0262433333333333 0.7975933333333332
0.8607466666666665 0.0404983333333333 0.7920583333333332
0.5727566666666665 0.2863783333333332 0.7069633333333332
0.5711366666666665 0.2855683333333333 0.6951683333333332
0.5421866666666665 0.2710933333333334 0.6897733333333332
0.9850866666666666 0.2425433333333333 0.6908533333333332
0.9598316666666665 0.2299133333333333 0.6972883333333332
0.9326766666666664 0.2163383333333333 0.7165033333333332
0.9326566666666665 0.2163283333333333 0.7289683333333332
0.9623066666666665 0.2311533333333333 0.7340633333333332
0.5214366666666665 0.2607183333333333 0.7333333333333332
0.5468566666666665 0.2734283333333333 0.7267983333333332
0.5458366666666665 0.2729183333333333 0.7138883333333332
0.5165966666666665 0.2582983333333333 0.7082233333333332
0.5163666666666665 0.2581833333333333 0.6964783333333332
0.9597566666666665 0.2298783333333333 0.7097133333333332
0.9881966666666665 0.2440983333333333 0.7155033333333333
0.9897966666666665 0.2448983333333333 0.7274433333333332
0.5993166666666665 0.2996583333333333 0.6875333333333332
0.9044266666666666 0.2022133333333333 0.7361533333333332
0.9523766666666665 0.4047533333333333 0.8101833333333331
0.9251216666666665 0.3502433333333332 0.7977633333333333
0.9095616666666664 0.3191233333333333 0.7909183333333333
0.8826216666666665 0.2652433333333333 0.7781733333333332
0.9677066666666666 0.4354133333333333 0.8171783333333332
0.8675066666666665 0.2350133333333333 0.7711583333333333
0.9697366666666666 0.3909383333333333 0.8072733333333332
0.9564366666666666 0.3633983333333333 0.8010633333333331
0.9278016666666665 0.3061033333333333 0.7879733333333332
0.9135366666666666 0.2788083333333333 0.7817483333333332
0.9737566666666665 0.3486133333333333 0.7975933333333332
0.9595016666666665 0.3202483333333333 0.7920583333333332
0.9212016666666666 0.3909383333333333 0.8072733333333332
0.9069616666666666 0.3633983333333333 0.8010633333333331
0.8783016666666665 0.3061033333333333 0.7879733333333332
0.8652716666666664 0.2788083333333333 0.7817483333333332
0.8748566666666664 0.3486133333333333 0.7975933333333332
0.8607466666666667 0.3202483333333333 0.7920583333333332
0.6090616666666665 0.0302633333333333 0.8072733333333332
0.6366016666666665 0.0435633333333333 0.8010633333333331
0.6938966666666665 0.0721983333333333 0.7879733333333332
0.7211916666666666 0.0864633333333333 0.7817483333333332
0.6513866666666666 0.0262433333333333 0.7975933333333332
0.6797516666666665 0.0404983333333333 0.7920583333333332
0.9697366666666666 0.0787983333333333 0.8072733333333332
0.9564366666666665 0.0930383333333333 0.8010633333333331
0.9278016666666664 0.1216983333333332 0.7879733333333332
0.9135366666666666 0.1347283333333333 0.7817483333333332
0.9737566666666666 0.1251433333333334 0.7975933333333332
0.9595016666666666 0.1392533333333333 0.7920583333333332
0.7242716666666665 0.0878683333333333 0.8593933333333332
0.6967316666666665 0.0736283333333333 0.8656033333333332
0.6394366666666665 0.0449683333333333 0.8786933333333332
0.6121416666666666 0.0319383333333333 0.8849183333333331
0.6819466666666666 0.0415233333333333 0.8690733333333333
0.6535816666666667 0.0274133333333333 0.8746083333333332
0.9121316666666666 0.1364033333333333 0.8593933333333332
0.9263716666666666 0.1231033333333333 0.8656033333333332
0.9550316666666664 0.0944683333333334 0.8786933333333332
0.9680616666666666 0.0802033333333334 0.8849183333333331
0.9584766666666665 0.1404233333333333 0.8690733333333333
0.9725866666666665 0.1261683333333333 0.8746083333333332
0.8635966666666666 0.2757283333333334 0.8593933333333332
0.8768966666666665 0.3032683333333333 0.8656033333333332
0.9055316666666665 0.3605633333333333 0.8786933333333332
0.9197966666666665 0.3878583333333333 0.8849183333333331
0.8595766666666667 0.3180533333333333 0.8690733333333333
0.8738316666666667 0.3464183333333333 0.8746083333333332
0.9530449999999998 0.5469550000000000 0.1263700000000000
0.9522349999999998 0.5477650000000001 0.1381650000000000
0.9377599999999998 0.5622399999999999 0.1435600000000000
0.9092100000000000 0.5907900000000000 0.1424800000000000
0.8965849999999999 0.6034200000000000 0.1360450000000000
0.8830049999999999 0.6169950000000000 0.1168300000000000
0.8829949999999999 0.6170050000000000 0.1043650000000000
0.8978200000000000 0.6021800000000000 0.0992700000000000
0.9273849999999998 0.5726149999999999 0.1000000000000000
0.9400949999999998 0.5599050000000000 0.1065350000000000
0.9395849999999999 0.5604150000000000 0.1194450000000000
0.9249649999999999 0.5750349999999999 0.1251100000000000
0.9248499999999997 0.5751499999999999 0.1368550000000000
0.8965449999999997 0.6034550000000000 0.1236200000000000
0.9107649999999999 0.5892350000000000 0.1178300000000000
0.9115649999999998 0.5884350000000000 0.1058900000000000
0.9663249999999998 0.5336750000000000 0.1458000000000000
0.8688799999999999 0.6311200000000000 0.0971800000000000
0.7142899999999999 0.9285800000000000 0.0231500000000000
0.7415449999999999 0.9830899999999999 0.0355700000000000
0.7571049999999998 0.5142100000000001 0.0424150000000000
0.7840449999999999 0.5680900000000000 0.0551600000000000
0.6989599999999999 0.8979199999999999 0.0161550000000000
0.7991599999999999 0.5983200000000000 0.0621750000000000
0.7454649999999999 0.9423949999999999 0.0260600000000000
0.7597050000000000 0.9699350000000000 0.0322700000000000
0.7883649999999999 0.5272300000000000 0.0453600000000000
0.8013950000000000 0.5545249999999999 0.0515850000000000
0.7918099999999999 0.9847200000000000 0.0357400000000000
0.8059199999999999 0.5130850000000000 0.0412750000000000
0.9530449999999998 0.9060899999999998 0.1263700000000000
0.9522349999999998 0.9044700000000000 0.1381650000000000
0.9377599999999998 0.8755200000000000 0.1435600000000000
0.9092100000000000 0.8184200000000000 0.1424800000000000
0.8965799999999998 0.7931649999999999 0.1360450000000000
0.8830049999999998 0.7660100000000000 0.1168300000000000
0.8829949999999998 0.7659899999999998 0.1043650000000000
0.8978200000000000 0.7956399999999999 0.0992700000000000
0.9273849999999999 0.8547700000000000 0.1000000000000000
0.9400949999999999 0.8801899999999999 0.1065350000000000
0.9395849999999999 0.8791699999999999 0.1194450000000000
0.9249649999999999 0.8499300000000000 0.1251100000000000
0.9248499999999998 0.8496999999999999 0.1368550000000000
0.8965449999999998 0.7930900000000000 0.1236200000000000
0.9107649999999998 0.8215299999999999 0.1178300000000000
0.9115649999999998 0.8231300000000000 0.1058900000000000
0.9663249999999999 0.9326499999999999 0.1458000000000000
0.8688799999999998 0.7377599999999999 0.0971800000000000
0.5714199999999999 0.7857100000000000 0.0231500000000000
0.5169099999999999 0.7584549999999999 0.0355700000000000
0.9857899999999997 0.7428950000000000 0.0424150000000000
0.9319099999999999 0.7159549999999999 0.0551600000000000
0.6020799999999999 0.8010400000000000 0.0161550000000000
0.9016799999999999 0.7008399999999999 0.0621750000000000
0.5576049999999999 0.8030699999999998 0.0260600000000000
0.5300650000000000 0.7897700000000001 0.0322700000000000
0.9727700000000000 0.7611350000000000 0.0453600000000000
0.9454750000000000 0.7468700000000000 0.0515850000000000
0.5152799999999998 0.8070900000000000 0.0357400000000000
0.9869149999999998 0.7928350000000000 0.0412750000000000
0.5939100000000000 0.5469550000000001 0.1263700000000000
0.5955299999999999 0.5477650000000001 0.1381650000000000
0.6244799999999999 0.5622400000000001 0.1435600000000000
0.6815799999999999 0.5907899999999999 0.1424800000000000
0.7068349999999999 0.6034149999999999 0.1360450000000000
0.7339899999999999 0.6169950000000000 0.1168300000000000
0.7340099999999999 0.6170050000000000 0.1043650000000000
0.7043599999999999 0.6021799999999999 0.0992700000000000
0.6452299999999999 0.5726149999999999 0.1000000000000000
0.6198099999999999 0.5599050000000000 0.1065350000000000
0.6208300000000000 0.5604150000000000 0.1194450000000000
0.6500699999999999 0.5750349999999999 0.1251100000000000
0.6502999999999999 0.5751499999999999 0.1368550000000000
0.7069099999999999 0.6034550000000001 0.1236200000000000
0.6784699999999999 0.5892350000000000 0.1178300000000000
0.6768699999999999 0.5884350000000000 0.1058900000000000
0.5673500000000000 0.5336750000000000 0.1458000000000000
0.7622399999999999 0.6311200000000000 0.0971800000000000
0.7142899999999999 0.7857100000000000 0.0231500000000000
0.7415449999999999 0.7584549999999999 0.0355700000000000
0.7571049999999999 0.7428950000000000 0.0424150000000000
0.7840449999999999 0.7159549999999999 0.0551600000000000
0.6989599999999999 0.8010400000000000 0.0161550000000000
0.7991600000000000 0.7008400000000000 0.0621750000000000
0.6969300000000000 0.7545350000000000 0.0260600000000000
0.7102299999999998 0.7402949999999999 0.0322700000000000
0.7388649999999999 0.7116349999999999 0.0453600000000000
0.7531299999999999 0.6986049999999998 0.0515850000000000
0.6929099999999998 0.7081899999999999 0.0357400000000000
0.7071649999999999 0.6940799999999999 0.0412750000000000
0.5469549999999999 0.9530449999999999 0.3736299999999999
0.5477650000000001 0.9522349999999999 0.3618350000000000
0.5622400000000000 0.9377599999999999 0.3564399999999999
0.5907900000000000 0.9092100000000002 0.3575199999999999
0.6034200000000000 0.8965850000000000 0.3639549999999999
0.6169950000000000 0.8830050000000000 0.3831700000000000
0.6170050000000000 0.8829950000000001 0.3956349999999999
0.6021800000000000 0.8978200000000000 0.4007300000000000
0.5726149999999999 0.9273850000000000 0.3999999999999999
0.5599050000000000 0.9400950000000001 0.3934649999999999
0.5604150000000000 0.9395850000000000 0.3805549999999999
0.5750349999999999 0.9249650000000000 0.3748899999999999
0.5751500000000001 0.9248499999999999 0.3631449999999999
0.6034550000000000 0.8965449999999998 0.3763799999999999
0.5892350000000000 0.9107650000000002 0.3821700000000000
0.5884350000000000 0.9115650000000001 0.3941100000000000
0.5336750000000000 0.9663250000000001 0.3541999999999998
0.6311200000000000 0.8688800000000000 0.4028200000000000
0.9285799999999998 0.7142900000000000 0.4768499999999999
0.9830899999999999 0.7415450000000000 0.4644300000000000
0.5142100000000001 0.7571049999999999 0.4575850000000000
0.5680900000000000 0.7840450000000000 0.4448400000000000
0.8979199999999999 0.6989600000000000 0.4838449999999999
0.5983200000000000 0.7991600000000000 0.4378249999999999
0.9423949999999999 0.7454650000000000 0.4739399999999999
0.9699349999999999 0.7597050000000000 0.4677299999999999
0.5272300000000000 0.7883650000000000 0.4546399999999999
0.5545250000000000 0.8013950000000001 0.4484150000000000
0.9847199999999999 0.7918100000000000 0.4642600000000000
0.5130849999999999 0.8059200000000000 0.4587249999999999
0.5469550000000000 0.5939100000000000 0.3736299999999999
0.5477649999999999 0.5955300000000000 0.3618350000000000
0.5622400000000000 0.6244799999999999 0.3564399999999999
0.5907899999999999 0.6815800000000000 0.3575199999999999
0.6034149999999999 0.7068350000000000 0.3639549999999999
0.6169949999999998 0.7339900000000000 0.3831700000000000
0.6170050000000000 0.7340099999999999 0.3956349999999999
0.6021799999999999 0.7043600000000000 0.4007300000000000
0.5726149999999999 0.6452300000000000 0.3999999999999999
0.5599049999999999 0.6198099999999999 0.3934649999999999
0.5604149999999999 0.6208299999999999 0.3805549999999999
0.5750349999999999 0.6500699999999999 0.3748899999999999
0.5751499999999999 0.6503000000000000 0.3631449999999999
0.6034550000000001 0.7069099999999999 0.3763799999999999
0.5892349999999998 0.6784699999999999 0.3821700000000000
0.5884349999999999 0.6768700000000000 0.3941100000000000
0.5336749999999999 0.5673500000000000 0.3541999999999998
0.6311200000000000 0.7622400000000000 0.4028200000000000
0.7857099999999999 0.7142900000000000 0.4768499999999999
0.7584550000000000 0.7415450000000000 0.4644300000000000
0.7428950000000001 0.7571050000000000 0.4575850000000000
0.7159550000000000 0.7840450000000000 0.4448400000000000
0.8010399999999999 0.6989600000000000 0.4838449999999999
0.7008400000000000 0.7991600000000002 0.4378249999999999
0.7545350000000000 0.6969300000000000 0.4739399999999999
0.7402949999999998 0.7102299999999999 0.4677299999999999
0.7116349999999999 0.7388650000000000 0.4546399999999999
0.6986049999999998 0.7531300000000000 0.4484150000000000
0.7081899999999999 0.6929099999999999 0.4642600000000000
0.6940800000000000 0.7071650000000000 0.4587249999999999
0.9060900000000000 0.9530450000000000 0.3736299999999999
0.9044700000000000 0.9522349999999999 0.3618350000000000
0.8755199999999999 0.9377599999999999 0.3564399999999999
0.8184199999999999 0.9092100000000002 0.3575199999999999
0.7931650000000000 0.8965800000000000 0.3639549999999999
0.7660100000000000 0.8830050000000000 0.3831700000000000
0.7659899999999998 0.8829950000000001 0.3956349999999999
0.7956399999999999 0.8978200000000000 0.4007300000000000
0.8547699999999999 0.9273850000000000 0.3999999999999999
0.8801899999999999 0.9400950000000001 0.3934649999999999
0.8791700000000000 0.9395850000000000 0.3805549999999999
0.8499299999999999 0.9249650000000000 0.3748899999999999
0.8496999999999999 0.9248499999999999 0.3631449999999999
0.7930899999999999 0.8965449999999998 0.3763799999999999
0.8215300000000000 0.9107650000000002 0.3821700000000000
0.8231300000000000 0.9115650000000001 0.3941100000000000
0.9326499999999999 0.9663250000000001 0.3541999999999998
0.7377600000000000 0.8688800000000000 0.4028200000000000
0.7857099999999999 0.5714200000000000 0.4768499999999999
0.7584549999999999 0.5169100000000000 0.4644300000000000
0.7428950000000000 0.9857899999999999 0.4575850000000000
0.7159550000000000 0.9319099999999999 0.4448400000000000
0.8010399999999999 0.6020799999999999 0.4838449999999999
0.7008399999999999 0.9016800000000000 0.4378249999999999
0.8030699999999998 0.5576050000000001 0.4739399999999999
0.7897700000000001 0.5300650000000001 0.4677299999999999
0.7611350000000000 0.9727700000000000 0.4546399999999999
0.7468699999999999 0.9454750000000000 0.4484150000000000
0.8070900000000001 0.5152800000000000 0.4642600000000000
0.7928350000000000 0.9869150000000000 0.4587249999999999
0.7545350000000000 0.5576050000000001 0.4739399999999999
0.7402949999999998 0.5300650000000001 0.4677299999999999
0.7116350000000000 0.9727700000000000 0.4546399999999999
0.6986049999999998 0.9454750000000000 0.4484150000000000
0.7081900000000000 0.5152800000000000 0.4642600000000000
0.6940800000000000 0.9869150000000000 0.4587249999999999
0.9423949999999999 0.6969300000000000 0.4739399999999999
0.9699349999999999 0.7102299999999999 0.4677299999999999
0.5272300000000000 0.7388650000000000 0.4546399999999999
0.5545249999999999 0.7531300000000000 0.4484150000000000
0.9847199999999999 0.6929099999999999 0.4642600000000000
0.5130850000000000 0.7071650000000000 0.4587249999999999
0.8030699999999998 0.7454650000000000 0.4739399999999999
0.7897700000000000 0.7597050000000000 0.4677299999999999
0.7611349999999999 0.7883650000000000 0.4546399999999999
0.7468700000000000 0.8013950000000001 0.4484150000000000
0.8070900000000000 0.7918100000000000 0.4642600000000000
0.7928349999999998 0.8059200000000000 0.4587249999999999
0.5576050000000000 0.7545350000000000 0.0260600000000000
0.5300650000000000 0.7402949999999999 0.0322700000000000
0.9727700000000000 0.7116349999999999 0.0453600000000000
0.9454750000000000 0.6986049999999998 0.0515850000000000
0.5152799999999998 0.7081899999999999 0.0357400000000000
0.9869149999999999 0.6940799999999999 0.0412750000000000
0.7454649999999999 0.8030699999999998 0.0260600000000000
0.7597050000000000 0.7897700000000001 0.0322700000000000
0.7883649999999999 0.7611350000000000 0.0453600000000000
0.8013950000000000 0.7468700000000000 0.0515850000000000
0.7918099999999999 0.8070900000000000 0.0357400000000000
0.8059199999999999 0.7928350000000000 0.0412750000000000
0.6969299999999999 0.9423949999999999 0.0260600000000000
0.7102299999999999 0.9699350000000000 0.0322700000000000
0.7388649999999999 0.5272300000000000 0.0453600000000000
0.7531299999999999 0.5545249999999999 0.0515850000000000
0.6929099999999998 0.9847200000000000 0.0357400000000000
0.7071649999999999 0.5130850000000000 0.0412750000000000
0.7863783333333332 0.7136216666666665 0.2930366666666667
0.7855683333333332 0.7144316666666667 0.3048316666666666
0.7710933333333332 0.7289066666666665 0.3102266666666666
0.7425433333333332 0.7574566666666666 0.3091466666666666
0.7299183333333332 0.7700866666666666 0.3027116666666666
0.7163383333333332 0.7836616666666665 0.2834966666666666
0.7163283333333331 0.7836716666666665 0.2710316666666666
0.7311533333333332 0.7688466666666666 0.2659366666666666
0.7607183333333333 0.7392816666666665 0.2666666666666666
0.7734283333333334 0.7265716666666666 0.2732016666666666
0.7729183333333333 0.7270816666666665 0.2861116666666666
0.7582983333333332 0.7417016666666667 0.2917766666666666
0.7581833333333332 0.7418166666666666 0.3035216666666666
0.7298783333333331 0.7701216666666664 0.2902866666666666
0.7440983333333332 0.7559016666666666 0.2844966666666666
0.7448983333333332 0.7551016666666666 0.2725566666666666
0.7996583333333332 0.7003416666666666 0.3124666666666666
0.7022133333333332 0.7977866666666664 0.2638466666666666
0.5476233333333334 0.5952466666666667 0.1898166666666666
0.5748783333333334 0.6497566666666666 0.2022366666666666
0.5904383333333332 0.6808766666666667 0.2090816666666666
0.6173783333333333 0.7347566666666666 0.2218266666666666
0.5322933333333333 0.5645866666666667 0.1828216666666666
0.6324933333333332 0.7649866666666665 0.2288416666666666
0.5787983333333333 0.6090616666666666 0.1927266666666666
0.5930383333333332 0.6366016666666665 0.1989366666666666
0.6216983333333331 0.6938966666666665 0.2120266666666666
0.6347283333333332 0.7211916666666666 0.2182516666666666
0.6251433333333333 0.6513866666666666 0.2024066666666666
0.6392533333333332 0.6797516666666665 0.2079416666666666
0.7863783333333332 0.5727566666666665 0.2930366666666667
0.7855683333333332 0.5711366666666665 0.3048316666666666
0.7710933333333332 0.5421866666666666 0.3102266666666666
0.7425433333333333 0.9850866666666667 0.3091466666666666
0.7299133333333333 0.9598316666666667 0.3027116666666666
0.7163383333333332 0.9326766666666665 0.2834966666666666
0.7163283333333332 0.9326566666666665 0.2710316666666666
0.7311533333333332 0.9623066666666665 0.2659366666666666
0.7607183333333333 0.5214366666666665 0.2666666666666666
0.7734283333333333 0.5468566666666665 0.2732016666666666
0.7729183333333333 0.5458366666666666 0.2861116666666666
0.7582983333333332 0.5165966666666666 0.2917766666666666
0.7581833333333332 0.5163666666666665 0.3035216666666666
0.7298783333333332 0.9597566666666665 0.2902866666666666
0.7440983333333331 0.9881966666666665 0.2844966666666666
0.7448983333333332 0.9897966666666664 0.2725566666666666
0.7996583333333332 0.5993166666666665 0.3124666666666666
0.7022133333333332 0.9044266666666665 0.2638466666666666
0.9047533333333333 0.9523766666666666 0.1898166666666666
0.8502433333333331 0.9251216666666665 0.2022366666666666
0.8191233333333331 0.9095616666666664 0.2090816666666666
0.7652433333333331 0.8826216666666664 0.2218266666666666
0.9354133333333332 0.9677066666666666 0.1828216666666666
0.7350133333333332 0.8675066666666664 0.2288416666666666
0.8909383333333333 0.9697366666666667 0.1927266666666666
0.8633983333333330 0.9564366666666665 0.1989366666666666
0.8061033333333332 0.9278016666666664 0.2120266666666666
0.7788083333333332 0.9135366666666666 0.2182516666666666
0.8486133333333331 0.9737566666666666 0.2024066666666666
0.8202483333333331 0.9595016666666665 0.2079416666666666
0.9272433333333332 0.7136216666666666 0.2930366666666667
0.9288633333333333 0.7144316666666667 0.3048316666666666
0.9578133333333333 0.7289066666666667 0.3102266666666666
0.5149133333333332 0.7574566666666666 0.3091466666666666
0.5401683333333334 0.7700816666666668 0.3027116666666666
0.5673233333333333 0.7836616666666665 0.2834966666666666
0.5673433333333332 0.7836716666666665 0.2710316666666666
0.5376933333333332 0.7688466666666666 0.2659366666666666
0.9785633333333331 0.7392816666666665 0.2666666666666666
0.9531433333333331 0.7265716666666666 0.2732016666666666
0.9541633333333330 0.7270816666666665 0.2861116666666666
0.9834033333333333 0.7417016666666667 0.2917766666666666
0.9836333333333331 0.7418166666666666 0.3035216666666666
0.5402433333333333 0.7701216666666666 0.2902866666666666
0.5118033333333333 0.7559016666666666 0.2844966666666666
0.5102033333333332 0.7551016666666666 0.2725566666666666
0.9006833333333332 0.7003416666666666 0.3124666666666666
0.5955733333333332 0.7977866666666664 0.2638466666666666
0.5476233333333335 0.9523766666666666 0.1898166666666666
0.5748783333333334 0.9251216666666665 0.2022366666666666
0.5904383333333333 0.9095616666666665 0.2090816666666666
0.6173783333333333 0.8826216666666664 0.2218266666666666
0.5322933333333333 0.9677066666666666 0.1828216666666666
0.6324933333333332 0.8675066666666664 0.2288416666666666
0.5302633333333333 0.9212016666666667 0.1927266666666666
0.5435633333333332 0.9069616666666666 0.1989366666666666
0.5721983333333333 0.8783016666666665 0.2120266666666666
0.5864633333333332 0.8652716666666664 0.2182516666666666
0.5262433333333332 0.8748566666666665 0.2024066666666666
0.5404983333333332 0.8607466666666664 0.2079416666666666
0.8802883333333332 0.6197116666666667 0.0402966666666666
0.8810983333333332 0.6189016666666666 0.0285016666666666
0.8955733333333332 0.6044266666666666 0.0231066666666667
0.9241233333333331 0.5758766666666667 0.0241866666666667
0.9367533333333331 0.5632516666666667 0.0306216666666667
0.9503283333333332 0.5496716666666667 0.0498366666666666
0.9503383333333331 0.5496616666666666 0.0623016666666667
0.9355133333333332 0.5644866666666667 0.0673966666666666
0.9059483333333332 0.5940516666666665 0.0666666666666666
0.8932383333333331 0.6067616666666666 0.0601316666666666
0.8937483333333333 0.6062516666666665 0.0472216666666667
0.9083683333333332 0.5916316666666666 0.0415566666666667
0.9084833333333332 0.5915166666666667 0.0298116666666666
0.9367883333333331 0.5632116666666667 0.0430466666666667
0.9225683333333332 0.5774316666666667 0.0488366666666666
0.9217683333333332 0.5782316666666667 0.0607766666666667
0.8670083333333333 0.6329916666666666 0.0208666666666666
0.9644533333333332 0.5355466666666666 0.0694866666666666
0.7619133333333332 0.8809566666666665 0.1435166666666666
0.8164233333333332 0.9082116666666665 0.1310966666666666
0.8475433333333332 0.9237716666666665 0.1242516666666666
0.9014233333333331 0.9507116666666666 0.1115066666666666
0.7312533333333333 0.8656266666666667 0.1505116666666667
0.9316533333333332 0.9658266666666665 0.1044916666666666
0.7757283333333334 0.9121316666666667 0.1406066666666666
0.8032683333333331 0.9263716666666667 0.1343966666666666
0.8605633333333332 0.9550316666666665 0.1213066666666666
0.8878583333333332 0.9680616666666666 0.1150816666666667
0.8180533333333332 0.9584766666666665 0.1309266666666666
0.8464183333333331 0.9725866666666666 0.1253916666666666
0.8802883333333331 0.7605766666666666 0.0402966666666666
0.8810983333333332 0.7621966666666666 0.0285016666666666
0.8955733333333332 0.7911466666666667 0.0231066666666667
0.9241233333333332 0.8482466666666666 0.0241866666666667
0.9367483333333332 0.8735016666666665 0.0306216666666667
0.9503283333333331 0.9006566666666665 0.0498366666666666
0.9503383333333332 0.9006766666666667 0.0623016666666667
0.9355133333333331 0.8710266666666665 0.0673966666666666
0.9059483333333332 0.8118966666666666 0.0666666666666666
0.8932383333333331 0.7864766666666665 0.0601316666666666
0.8937483333333333 0.7874966666666666 0.0472216666666667
0.9083683333333332 0.8167366666666667 0.0415566666666667
0.9084833333333331 0.8169666666666665 0.0298116666666666
0.9367883333333332 0.8735766666666667 0.0430466666666667
0.9225683333333331 0.8451366666666666 0.0488366666666666
0.9217683333333332 0.8435366666666666 0.0607766666666667
0.8670083333333333 0.7340166666666667 0.0208666666666666
0.9644533333333333 0.9289066666666665 0.0694866666666666
0.6190433333333333 0.8809566666666665 0.1435166666666666
0.5917883333333334 0.9082116666666665 0.1310966666666666
0.5762283333333332 0.9237716666666665 0.1242516666666666
0.5492883333333334 0.9507116666666666 0.1115066666666666
0.6343733333333333 0.8656266666666667 0.1505116666666667
0.5341733333333334 0.9658266666666666 0.1044916666666666
0.5878683333333332 0.8635966666666667 0.1406066666666666
0.5736283333333332 0.8768966666666665 0.1343966666666666
0.5449683333333333 0.9055316666666666 0.1213066666666666
0.5319383333333332 0.9197966666666666 0.1150816666666667
0.5415233333333334 0.8595766666666667 0.1309266666666666
0.5274133333333333 0.8738316666666666 0.1253916666666666
0.7394233333333332 0.6197116666666667 0.0402966666666666
0.7378033333333333 0.6189016666666666 0.0285016666666666
0.7088533333333332 0.6044266666666666 0.0231066666666667
0.6517533333333333 0.5758766666666667 0.0241866666666667
0.6264983333333333 0.5632466666666667 0.0306216666666667
0.5993433333333333 0.5496716666666667 0.0498366666666666
0.5993233333333331 0.5496616666666667 0.0623016666666667
0.6289733333333333 0.5644866666666667 0.0673966666666666
0.6881033333333332 0.5940516666666665 0.0666666666666666
0.7135233333333332 0.6067616666666666 0.0601316666666666
0.7125033333333332 0.6062516666666665 0.0472216666666667
0.6832633333333332 0.5916316666666666 0.0415566666666667
0.6830333333333333 0.5915166666666667 0.0298116666666666
0.6264233333333332 0.5632116666666667 0.0430466666666667
0.6548633333333334 0.5774316666666667 0.0488366666666666
0.6564633333333333 0.5782316666666667 0.0607766666666667
0.7659833333333331 0.6329916666666666 0.0208666666666666
0.5710933333333332 0.5355466666666666 0.0694866666666666
0.6190433333333333 0.7380866666666667 0.1435166666666666
0.5917883333333334 0.6835766666666666 0.1310966666666666
0.5762283333333332 0.6524566666666666 0.1242516666666666
0.5492883333333333 0.5985766666666666 0.1115066666666666
0.6343733333333333 0.7687466666666667 0.1505116666666667
0.5341733333333332 0.5683466666666667 0.1044916666666666
0.6364033333333332 0.7242716666666665 0.1406066666666666
0.6231033333333333 0.6967316666666666 0.1343966666666666
0.5944683333333333 0.6394366666666667 0.1213066666666666
0.5802033333333333 0.6121416666666667 0.1150816666666667
0.6404233333333333 0.6819466666666667 0.1309266666666666
0.6261683333333333 0.6535816666666667 0.1253916666666666
0.5878683333333332 0.7242716666666665 0.1406066666666666
0.5736283333333333 0.6967316666666666 0.1343966666666666
0.5449683333333332 0.6394366666666667 0.1213066666666666
0.5319383333333332 0.6121416666666667 0.1150816666666667
0.5415233333333334 0.6819466666666667 0.1309266666666666
0.5274133333333333 0.6535816666666667 0.1253916666666666
0.7757283333333332 0.8635966666666667 0.1406066666666666
0.8032683333333331 0.8768966666666665 0.1343966666666666
0.8605633333333333 0.9055316666666666 0.1213066666666666
0.8878583333333332 0.9197966666666666 0.1150816666666667
0.8180533333333333 0.8595766666666667 0.1309266666666666
0.8464183333333332 0.8738316666666666 0.1253916666666666
0.6364033333333333 0.9121316666666667 0.1406066666666666
0.6231033333333332 0.9263716666666667 0.1343966666666666
0.5944683333333334 0.9550316666666665 0.1213066666666666
0.5802033333333334 0.9680616666666666 0.1150816666666667
0.6404233333333333 0.9584766666666665 0.1309266666666666
0.6261683333333332 0.9725866666666666 0.1253916666666666
0.8909383333333333 0.9212016666666667 0.1927266666666666
0.8633983333333330 0.9069616666666666 0.1989366666666666
0.8061033333333332 0.8783016666666665 0.2120266666666666
0.7788083333333331 0.8652716666666664 0.2182516666666666
0.8486133333333332 0.8748566666666665 0.2024066666666666
0.8202483333333330 0.8607466666666664 0.2079416666666666
0.5787983333333333 0.9697366666666667 0.1927266666666666
0.5930383333333332 0.9564366666666665 0.1989366666666666
0.6216983333333331 0.9278016666666664 0.2120266666666666
0.6347283333333332 0.9135366666666666 0.2182516666666666
0.6251433333333333 0.9737566666666666 0.2024066666666666
0.6392533333333332 0.9595016666666665 0.2079416666666666
0.5302633333333333 0.6090616666666666 0.1927266666666666
0.5435633333333332 0.6366016666666665 0.1989366666666666
0.5721983333333333 0.6938966666666665 0.2120266666666666
0.5864633333333332 0.7211916666666666 0.2182516666666666
0.5262433333333333 0.6513866666666666 0.2024066666666666
0.5404983333333332 0.6797516666666665 0.2079416666666666
0.6197116666666667 0.8802883333333335 0.4597033333333333
0.6189016666666667 0.8810983333333333 0.4714983333333333
0.6044266666666667 0.8955733333333333 0.4768933333333332
0.5758766666666667 0.9241233333333333 0.4758133333333332
0.5632516666666667 0.9367533333333333 0.4693783333333333
0.5496716666666667 0.9503283333333334 0.4501633333333332
0.5496616666666665 0.9503383333333333 0.4376983333333332
0.5644866666666666 0.9355133333333333 0.4326033333333333
0.5940516666666665 0.9059483333333334 0.4333333333333333
0.6067616666666666 0.8932383333333334 0.4398683333333333
0.6062516666666666 0.8937483333333334 0.4527783333333332
0.5916316666666667 0.9083683333333333 0.4584433333333333
0.5915166666666667 0.9084833333333334 0.4701883333333332
0.5632116666666667 0.9367883333333332 0.4569533333333333
0.5774316666666667 0.9225683333333333 0.4511633333333332
0.5782316666666667 0.9217683333333333 0.4392233333333332
0.6329916666666666 0.8670083333333334 0.4791333333333332
0.5355466666666666 0.9644533333333333 0.4305133333333332
0.8809566666666665 0.7619133333333333 0.3564833333333333
0.9082116666666665 0.8164233333333333 0.3689033333333332
0.9237716666666667 0.8475433333333333 0.3757483333333332
0.9507116666666665 0.9014233333333331 0.3884933333333332
0.8656266666666664 0.7312533333333332 0.3494883333333332
0.9658266666666665 0.9316533333333334 0.3955083333333332
0.9121316666666666 0.7757283333333334 0.3593933333333333
0.9263716666666667 0.8032683333333334 0.3656033333333333
0.9550316666666665 0.8605633333333335 0.3786933333333333
0.9680616666666666 0.8878583333333333 0.3849183333333333
0.9584766666666665 0.8180533333333333 0.3690733333333332
0.9725866666666666 0.8464183333333333 0.3746083333333333
0.6197116666666667 0.7394233333333333 0.4597033333333333
0.6189016666666667 0.7378033333333334 0.4714983333333333
0.6044266666666667 0.7088533333333333 0.4768933333333332
0.5758766666666666 0.6517533333333334 0.4758133333333332
0.5632466666666667 0.6264983333333334 0.4693783333333333
0.5496716666666666 0.5993433333333333 0.4501633333333332
0.5496616666666667 0.5993233333333332 0.4376983333333332
0.5644866666666666 0.6289733333333333 0.4326033333333333
0.5940516666666665 0.6881033333333332 0.4333333333333333
0.6067616666666665 0.7135233333333332 0.4398683333333333
0.6062516666666666 0.7125033333333333 0.4527783333333332
0.5916316666666667 0.6832633333333333 0.4584433333333333
0.5915166666666668 0.6830333333333334 0.4701883333333332
0.5632116666666666 0.6264233333333333 0.4569533333333333
0.5774316666666667 0.6548633333333334 0.4511633333333332
0.5782316666666666 0.6564633333333334 0.4392233333333332
0.6329916666666666 0.7659833333333332 0.4791333333333332
0.5355466666666665 0.5710933333333333 0.4305133333333332
0.7380866666666666 0.6190433333333333 0.3564833333333333
0.6835766666666665 0.5917883333333334 0.3689033333333332
0.6524566666666666 0.5762283333333332 0.3757483333333332
0.5985766666666665 0.5492883333333334 0.3884933333333332
0.7687466666666667 0.6343733333333332 0.3494883333333332
0.5683466666666666 0.5341733333333333 0.3955083333333332
0.7242716666666665 0.6364033333333332 0.3593933333333333
0.6967316666666665 0.6231033333333332 0.3656033333333333
0.6394366666666665 0.5944683333333334 0.3786933333333333
0.6121416666666666 0.5802033333333333 0.3849183333333333
0.6819466666666666 0.6404233333333333 0.3690733333333332
0.6535816666666666 0.6261683333333332 0.3746083333333333
0.7605766666666667 0.8802883333333335 0.4597033333333333
0.7621966666666666 0.8810983333333333 0.4714983333333333
0.7911466666666666 0.8955733333333333 0.4768933333333332
0.8482466666666666 0.9241233333333333 0.4758133333333332
0.8735016666666665 0.9367483333333333 0.4693783333333333
0.9006566666666667 0.9503283333333334 0.4501633333333332
0.9006766666666666 0.9503383333333333 0.4376983333333332
0.8710266666666665 0.9355133333333333 0.4326033333333333
0.8118966666666665 0.9059483333333334 0.4333333333333333
0.7864766666666665 0.8932383333333334 0.4398683333333333
0.7874966666666666 0.8937483333333334 0.4527783333333332
0.8167366666666666 0.9083683333333333 0.4584433333333333
0.8169666666666666 0.9084833333333334 0.4701883333333332
0.8735766666666666 0.9367883333333332 0.4569533333333333
0.8451366666666666 0.9225683333333333 0.4511633333333332
0.8435366666666665 0.9217683333333333 0.4392233333333332
0.7340166666666667 0.8670083333333334 0.4791333333333332
0.9289066666666665 0.9644533333333333 0.4305133333333332
0.8809566666666665 0.6190433333333333 0.3564833333333333
0.9082116666666665 0.5917883333333334 0.3689033333333332
0.9237716666666665 0.5762283333333332 0.3757483333333332
0.9507116666666663 0.5492883333333334 0.3884933333333332
0.8656266666666665 0.6343733333333332 0.3494883333333332
0.9658266666666665 0.5341733333333333 0.3955083333333332
0.8635966666666666 0.5878683333333332 0.3593933333333333
0.8768966666666665 0.5736283333333332 0.3656033333333333
0.9055316666666665 0.5449683333333332 0.3786933333333333
0.9197966666666664 0.5319383333333332 0.3849183333333333
0.8595766666666665 0.5415233333333334 0.3690733333333332
0.8738316666666666 0.5274133333333332 0.3746083333333333
0.7136216666666665 0.7863783333333332 0.2069633333333333
0.7144316666666667 0.7855683333333333 0.1951683333333333
0.7289066666666666 0.7710933333333333 0.1897733333333333
0.7574566666666667 0.7425433333333333 0.1908533333333333
0.7700866666666666 0.7299183333333334 0.1972883333333333
0.7836616666666666 0.7163383333333333 0.2165033333333333
0.7836716666666664 0.7163283333333331 0.2289683333333333
0.7688466666666666 0.7311533333333333 0.2340633333333333
0.7392816666666664 0.7607183333333333 0.2333333333333333
0.7265716666666664 0.7734283333333332 0.2267983333333333
0.7270816666666664 0.7729183333333332 0.2138883333333333
0.7417016666666665 0.7582983333333331 0.2082233333333333
0.7418166666666667 0.7581833333333333 0.1964783333333333
0.7701216666666664 0.7298783333333332 0.2097133333333333
0.7559016666666666 0.7440983333333333 0.2155033333333333
0.7551016666666664 0.7448983333333332 0.2274433333333333
0.7003416666666665 0.7996583333333332 0.1875333333333333
0.7977866666666664 0.7022133333333332 0.2361533333333333
0.5952466666666666 0.5476233333333334 0.3101833333333333
0.6497566666666665 0.5748783333333334 0.2977633333333333
0.6808766666666666 0.5904383333333333 0.2909183333333333
0.7347566666666666 0.6173783333333334 0.2781733333333333
0.5645866666666666 0.5322933333333333 0.3171783333333333
0.7649866666666666 0.6324933333333332 0.2711583333333333
0.6090616666666665 0.5787983333333332 0.3072733333333332
0.6366016666666665 0.5930383333333333 0.3010633333333332
0.6938966666666665 0.6216983333333331 0.2879733333333332
0.7211916666666666 0.6347283333333332 0.2817483333333333
0.6513866666666666 0.6251433333333334 0.2975933333333333
0.6797516666666665 0.6392533333333333 0.2920583333333333
0.7136216666666665 0.9272433333333332 0.2069633333333333
0.7144316666666666 0.9288633333333334 0.1951683333333333
0.7289066666666667 0.9578133333333334 0.1897733333333333
0.7574566666666666 0.5149133333333334 0.1908533333333333
0.7700816666666667 0.5401683333333335 0.1972883333333333
0.7836616666666665 0.5673233333333334 0.2165033333333333
0.7836716666666664 0.5673433333333333 0.2289683333333333
0.7688466666666665 0.5376933333333334 0.2340633333333333
0.7392816666666665 0.9785633333333330 0.2333333333333333
0.7265716666666665 0.9531433333333331 0.2267983333333333
0.7270816666666664 0.9541633333333330 0.2138883333333333
0.7417016666666666 0.9834033333333333 0.2082233333333333
0.7418166666666666 0.9836333333333332 0.1964783333333333
0.7701216666666665 0.5402433333333333 0.2097133333333333
0.7559016666666665 0.5118033333333333 0.2155033333333333
0.7551016666666664 0.5102033333333333 0.2274433333333333
0.7003416666666665 0.9006833333333333 0.1875333333333333
0.7977866666666664 0.5955733333333332 0.2361533333333333
0.9523766666666665 0.5476233333333334 0.3101833333333333
0.9251216666666665 0.5748783333333334 0.2977633333333333
0.9095616666666666 0.5904383333333333 0.2909183333333333
0.8826216666666665 0.6173783333333334 0.2781733333333333
0.9677066666666666 0.5322933333333333 0.3171783333333333
0.8675066666666665 0.6324933333333332 0.2711583333333333
0.9212016666666665 0.5302633333333333 0.3072733333333332
0.9069616666666666 0.5435633333333333 0.3010633333333332
0.8783016666666665 0.5721983333333334 0.2879733333333332
0.8652716666666666 0.5864633333333332 0.2817483333333333
0.8748566666666665 0.5262433333333332 0.2975933333333333
0.8607466666666665 0.5404983333333333 0.2920583333333333
0.5727566666666665 0.7863783333333332 0.2069633333333333
0.5711366666666666 0.7855683333333333 0.1951683333333333
0.5421866666666666 0.7710933333333333 0.1897733333333333
0.9850866666666666 0.7425433333333333 0.1908533333333333
0.9598316666666666 0.7299133333333334 0.1972883333333333
0.9326766666666665 0.7163383333333333 0.2165033333333333
0.9326566666666665 0.7163283333333333 0.2289683333333333
0.9623066666666665 0.7311533333333333 0.2340633333333333
0.5214366666666665 0.7607183333333333 0.2333333333333333
0.5468566666666664 0.7734283333333332 0.2267983333333333
0.5458366666666665 0.7729183333333332 0.2138883333333333
0.5165966666666665 0.7582983333333331 0.2082233333333333
0.5163666666666666 0.7581833333333333 0.1964783333333333
0.9597566666666664 0.7298783333333332 0.2097133333333333
0.9881966666666664 0.7440983333333333 0.2155033333333333
0.9897966666666663 0.7448983333333332 0.2274433333333333
0.5993166666666666 0.7996583333333332 0.1875333333333333
0.9044266666666665 0.7022133333333332 0.2361533333333333
0.9523766666666666 0.9047533333333333 0.3101833333333333
0.9251216666666664 0.8502433333333332 0.2977633333333333
0.9095616666666665 0.8191233333333332 0.2909183333333333
0.8826216666666664 0.7652433333333331 0.2781733333333333
0.9677066666666666 0.9354133333333332 0.3171783333333333
0.8675066666666665 0.7350133333333333 0.2711583333333333
0.9697366666666666 0.8909383333333334 0.3072733333333332
0.9564366666666666 0.8633983333333333 0.3010633333333332
0.9278016666666665 0.8061033333333333 0.2879733333333332
0.9135366666666664 0.7788083333333331 0.2817483333333333
0.9737566666666666 0.8486133333333334 0.2975933333333333
0.9595016666666666 0.8202483333333331 0.2920583333333333
0.9212016666666666 0.8909383333333334 0.3072733333333332
0.9069616666666666 0.8633983333333333 0.3010633333333332
0.8783016666666665 0.8061033333333333 0.2879733333333332
0.8652716666666664 0.7788083333333331 0.2817483333333333
0.8748566666666665 0.8486133333333334 0.2975933333333333
0.8607466666666665 0.8202483333333331 0.2920583333333333
0.6090616666666665 0.5302633333333333 0.3072733333333332
0.6366016666666665 0.5435633333333333 0.3010633333333332
0.6938966666666665 0.5721983333333334 0.2879733333333332
0.7211916666666666 0.5864633333333332 0.2817483333333333
0.6513866666666666 0.5262433333333332 0.2975933333333333
0.6797516666666665 0.5404983333333333 0.2920583333333333
0.9697366666666665 0.5787983333333332 0.3072733333333332
0.9564366666666665 0.5930383333333333 0.3010633333333332
0.9278016666666665 0.6216983333333331 0.2879733333333332
0.9135366666666664 0.6347283333333332 0.2817483333333333
0.9737566666666666 0.6251433333333334 0.2975933333333333
0.9595016666666666 0.6392533333333333 0.2920583333333333
0.7242716666666665 0.5878683333333332 0.3593933333333333
0.6967316666666665 0.5736283333333332 0.3656033333333333
0.6394366666666665 0.5449683333333332 0.3786933333333333
0.6121416666666666 0.5319383333333332 0.3849183333333333
0.6819466666666666 0.5415233333333334 0.3690733333333332
0.6535816666666666 0.5274133333333332 0.3746083333333333
0.9121316666666666 0.6364033333333332 0.3593933333333333
0.9263716666666666 0.6231033333333332 0.3656033333333333
0.9550316666666664 0.5944683333333334 0.3786933333333333
0.9680616666666665 0.5802033333333333 0.3849183333333333
0.9584766666666665 0.6404233333333333 0.3690733333333332
0.9725866666666665 0.6261683333333332 0.3746083333333333
0.8635966666666667 0.7757283333333334 0.3593933333333333
0.8768966666666667 0.8032683333333334 0.3656033333333333
0.9055316666666666 0.8605633333333335 0.3786933333333333
0.9197966666666665 0.8878583333333333 0.3849183333333333
0.8595766666666667 0.8180533333333333 0.3690733333333332
0.8738316666666666 0.8464183333333333 0.3746083333333333
0.9530449999999998 0.5469549999999999 0.6263699999999999
0.9522349999999999 0.5477649999999999 0.6381650000000000
0.9377599999999997 0.5622399999999999 0.6435599999999999
0.9092099999999999 0.5907899999999999 0.6424799999999998
0.8965849999999997 0.6034199999999998 0.6360449999999999
0.8830049999999998 0.6169949999999998 0.6168299999999999
0.8829949999999998 0.6170049999999999 0.6043649999999999
0.8978199999999998 0.6021800000000000 0.5992699999999999
0.9273849999999998 0.5726149999999999 0.5999999999999999
0.9400949999999999 0.5599049999999999 0.6065349999999999
0.9395849999999999 0.5604150000000000 0.6194449999999999
0.9249649999999998 0.5750349999999999 0.6251099999999999
0.9248499999999997 0.5751499999999999 0.6368549999999998
0.8965449999999997 0.6034549999999999 0.6236199999999998
0.9107649999999998 0.5892349999999998 0.6178299999999999
0.9115649999999998 0.5884349999999999 0.6058899999999999
0.9663249999999999 0.5336749999999999 0.6457999999999999
0.8688799999999999 0.6311199999999999 0.5971799999999999
0.7142900000000000 0.9285800000000000 0.5231499999999999
0.7415449999999999 0.9830899999999999 0.5355699999999999
0.7571049999999998 0.5142100000000001 0.5424149999999999
0.7840449999999999 0.5680900000000000 0.5551599999999999
0.6989600000000000 0.8979200000000001 0.5161549999999999
0.7991599999999999 0.5983200000000000 0.5621749999999999
0.7454649999999999 0.9423950000000000 0.5260599999999999
0.7597050000000001 0.9699350000000000 0.5322699999999999
0.7883649999999999 0.5272300000000000 0.5453599999999998
0.8013950000000000 0.5545250000000000 0.5515849999999999
0.7918099999999999 0.9847200000000000 0.5357399999999999
0.8059199999999999 0.5130850000000001 0.5412749999999998
0.9530449999999998 0.9060899999999998 0.6263699999999999
0.9522349999999997 0.9044699999999999 0.6381650000000000
0.9377599999999997 0.8755199999999999 0.6435599999999999
0.9092099999999999 0.8184200000000000 0.6424799999999998
0.8965799999999998 0.7931649999999999 0.6360449999999999
0.8830049999999998 0.7660099999999999 0.6168299999999999
0.8829949999999996 0.7659899999999998 0.6043649999999999
0.8978200000000000 0.7956399999999999 0.5992699999999999
0.9273849999999999 0.8547700000000000 0.5999999999999999
0.9400949999999998 0.8801899999999999 0.6065349999999999
0.9395849999999998 0.8791699999999998 0.6194449999999999
0.9249649999999999 0.8499299999999999 0.6251099999999999
0.9248499999999997 0.8496999999999999 0.6368549999999998
0.8965449999999997 0.7930900000000000 0.6236199999999998
0.9107649999999998 0.8215299999999999 0.6178299999999999
0.9115649999999997 0.8231300000000000 0.6058899999999999
0.9663249999999998 0.9326499999999999 0.6457999999999999
0.8688799999999998 0.7377599999999999 0.5971799999999999
0.5714200000000000 0.7857100000000000 0.5231499999999999
0.5169100000000000 0.7584550000000000 0.5355699999999999
0.9857899999999998 0.7428950000000000 0.5424149999999999
0.9319099999999999 0.7159550000000000 0.5551599999999999
0.6020799999999999 0.8010400000000000 0.5161549999999999
0.9016800000000000 0.7008399999999999 0.5621749999999999
0.5576049999999999 0.8030699999999998 0.5260599999999999
0.5300650000000000 0.7897700000000001 0.5322699999999999
0.9727700000000000 0.7611350000000000 0.5453599999999998
0.9454750000000001 0.7468700000000001 0.5515849999999999
0.5152799999999998 0.8070900000000000 0.5357399999999999
0.9869149999999999 0.7928350000000000 0.5412749999999998
0.5939099999999999 0.5469550000000001 0.6263699999999999
0.5955299999999999 0.5477649999999999 0.6381650000000000
0.6244799999999999 0.5622400000000000 0.6435599999999999
0.6815799999999999 0.5907899999999998 0.6424799999999998
0.7068349999999999 0.6034149999999999 0.6360449999999999
0.7339899999999998 0.6169949999999998 0.6168299999999999
0.7340099999999999 0.6170049999999999 0.6043649999999999
0.7043599999999998 0.6021799999999998 0.5992699999999999
0.6452299999999997 0.5726149999999999 0.5999999999999999
0.6198099999999999 0.5599049999999999 0.6065349999999999
0.6208299999999999 0.5604150000000000 0.6194449999999999
0.6500699999999998 0.5750349999999999 0.6251099999999999
0.6502999999999998 0.5751499999999999 0.6368549999999998
0.7069099999999998 0.6034550000000000 0.6236199999999998
0.6784699999999999 0.5892349999999998 0.6178299999999999
0.6768699999999999 0.5884349999999999 0.6058899999999999
0.5673499999999999 0.5336749999999999 0.6457999999999999
0.7622399999999999 0.6311199999999999 0.5971799999999999
0.7142899999999999 0.7857100000000000 0.5231499999999999
0.7415449999999999 0.7584550000000000 0.5355699999999999
0.7571050000000000 0.7428950000000001 0.5424149999999999
0.7840449999999999 0.7159550000000000 0.5551599999999999
0.6989600000000000 0.8010400000000000 0.5161549999999999
0.7991600000000000 0.7008400000000000 0.5621749999999999
0.6969300000000000 0.7545350000000001 0.5260599999999999
0.7102299999999998 0.7402949999999999 0.5322699999999999
0.7388650000000000 0.7116350000000000 0.5453599999999998
0.7531299999999999 0.6986049999999999 0.5515849999999999
0.6929099999999999 0.7081900000000000 0.5357399999999999
0.7071649999999999 0.6940800000000000 0.5412749999999998
0.5469549999999999 0.9530449999999998 0.8736299999999999
0.5477649999999999 0.9522349999999998 0.8618349999999999
0.5622399999999999 0.9377599999999998 0.8564399999999998
0.5907899999999999 0.9092100000000001 0.8575199999999998
0.6034200000000000 0.8965849999999999 0.8639549999999998
0.6169950000000000 0.8830049999999999 0.8831699999999999
0.6170050000000001 0.8829950000000001 0.8956349999999997
0.6021800000000000 0.8978200000000001 0.9007299999999999
0.5726150000000000 0.9273850000000000 0.8999999999999999
0.5599050000000000 0.9400950000000001 0.8934649999999997
0.5604150000000000 0.9395849999999999 0.8805549999999998
0.5750349999999999 0.9249649999999999 0.8748899999999997
0.5751499999999999 0.9248499999999998 0.8631449999999998
0.6034549999999999 0.8965449999999997 0.8763799999999998
0.5892350000000000 0.9107650000000000 0.8821699999999999
0.5884350000000002 0.9115650000000001 0.8941099999999998
0.5336750000000000 0.9663250000000000 0.8541999999999997
0.6311200000000000 0.8688800000000000 0.9028199999999998
0.9285799999999998 0.7142900000000000 0.9768499999999999
0.9830899999999999 0.7415450000000000 0.9644299999999998
0.5142100000000001 0.7571049999999999 0.9575849999999998
0.5680900000000000 0.7840450000000000 0.9448399999999999
0.8979199999999999 0.6989600000000000 0.9838449999999999
0.5983200000000000 0.7991600000000001 0.9378249999999998
0.9423949999999999 0.7454650000000000 0.9739399999999999
0.9699349999999999 0.7597050000000001 0.9677299999999999
0.5272300000000000 0.7883650000000001 0.9546399999999997
0.5545250000000002 0.8013950000000002 0.9484149999999998
0.9847200000000000 0.7918100000000001 0.9642599999999999
0.5130850000000000 0.8059200000000000 0.9587249999999999
0.5469550000000000 0.5939100000000000 0.8736299999999999
0.5477650000000001 0.5955300000000000 0.8618349999999999
0.5622400000000000 0.6244800000000000 0.8564399999999998
0.5907899999999999 0.6815800000000000 0.8575199999999998
0.6034149999999999 0.7068350000000000 0.8639549999999998
0.6169949999999998 0.7339900000000000 0.8831699999999999
0.6170050000000000 0.7340100000000001 0.8956349999999997
0.6021799999999999 0.7043600000000000 0.9007299999999999
0.5726150000000000 0.6452300000000000 0.8999999999999999
0.5599049999999999 0.6198100000000000 0.8934649999999997
0.5604150000000000 0.6208300000000000 0.8805549999999998
0.5750349999999999 0.6500700000000000 0.8748899999999997
0.5751500000000001 0.6503000000000000 0.8631449999999998
0.6034550000000001 0.7069100000000000 0.8763799999999998
0.5892349999999998 0.6784700000000000 0.8821699999999999
0.5884349999999999 0.6768700000000000 0.8941099999999998
0.5336750000000000 0.5673500000000000 0.8541999999999997
0.6311200000000001 0.7622400000000001 0.9028199999999998
0.7857100000000000 0.7142900000000000 0.9768499999999999
0.7584550000000000 0.7415450000000000 0.9644299999999998
0.7428950000000002 0.7571050000000001 0.9575849999999998
0.7159550000000000 0.7840450000000000 0.9448399999999999
0.8010400000000000 0.6989600000000000 0.9838449999999999
0.7008400000000000 0.7991600000000002 0.9378249999999998
0.7545350000000000 0.6969300000000000 0.9739399999999999
0.7402949999999999 0.7102299999999999 0.9677299999999999
0.7116350000000000 0.7388650000000000 0.9546399999999997
0.6986049999999999 0.7531300000000000 0.9484149999999998
0.7081900000000000 0.6929099999999999 0.9642599999999999
0.6940800000000000 0.7071650000000000 0.9587249999999999
0.9060899999999998 0.9530449999999999 0.8736299999999999
0.9044699999999999 0.9522349999999998 0.8618349999999999
0.8755199999999999 0.9377599999999998 0.8564399999999998
0.8184199999999999 0.9092100000000001 0.8575199999999998
0.7931650000000000 0.8965799999999999 0.8639549999999998
0.7660099999999999 0.8830049999999999 0.8831699999999999
0.7659899999999999 0.8829950000000001 0.8956349999999997
0.7956400000000000 0.8978200000000001 0.9007299999999999
0.8547700000000000 0.9273850000000000 0.8999999999999999
0.8801900000000000 0.9400950000000001 0.8934649999999997
0.8791699999999999 0.9395849999999999 0.8805549999999998
0.8499299999999999 0.9249649999999999 0.8748899999999997
0.8496999999999999 0.9248499999999998 0.8631449999999998
0.7930899999999999 0.8965449999999997 0.8763799999999998
0.8215299999999999 0.9107650000000000 0.8821699999999999
0.8231300000000000 0.9115650000000001 0.8941099999999998
0.9326499999999999 0.9663250000000000 0.8541999999999997
0.7377600000000000 0.8688800000000000 0.9028199999999998
0.7857099999999999 0.5714200000000000 0.9768499999999999
0.7584550000000000 0.5169100000000000 0.9644299999999998
0.7428950000000000 0.9857899999999999 0.9575849999999998
0.7159550000000000 0.9319100000000000 0.9448399999999999
0.8010400000000000 0.6020799999999999 0.9838449999999999
0.7008399999999999 0.9016800000000001 0.9378249999999998
0.8030700000000000 0.5576050000000000 0.9739399999999999
0.7897700000000001 0.5300650000000000 0.9677299999999999
0.7611350000000000 0.9727700000000001 0.9546399999999997
0.7468699999999999 0.9454750000000001 0.9484149999999998
0.8070900000000001 0.5152800000000000 0.9642599999999999
0.7928350000000000 0.9869150000000001 0.9587249999999999
0.7545350000000000 0.5576050000000000 0.9739399999999999
0.7402949999999998 0.5300650000000000 0.9677299999999999
0.7116350000000000 0.9727700000000001 0.9546399999999997
0.6986049999999998 0.9454750000000001 0.9484149999999998
0.7081900000000000 0.5152800000000000 0.9642599999999999
0.6940800000000000 0.9869150000000001 0.9587249999999999
0.9423949999999999 0.6969300000000000 0.9739399999999999
0.9699349999999999 0.7102299999999999 0.9677299999999999
0.5272300000000000 0.7388650000000000 0.9546399999999997
0.5545250000000000 0.7531300000000000 0.9484149999999998
0.9847199999999999 0.6929099999999999 0.9642599999999999
0.5130850000000000 0.7071650000000000 0.9587249999999999
0.8030699999999998 0.7454650000000000 0.9739399999999999
0.7897700000000001 0.7597050000000001 0.9677299999999999
0.7611350000000000 0.7883650000000001 0.9546399999999997
0.7468700000000000 0.8013950000000002 0.9484149999999998
0.8070900000000001 0.7918100000000001 0.9642599999999999
0.7928350000000000 0.8059200000000000 0.9587249999999999
0.5576050000000001 0.7545350000000001 0.5260599999999999
0.5300650000000000 0.7402949999999999 0.5322699999999999
0.9727700000000000 0.7116350000000000 0.5453599999999998
0.9454750000000000 0.6986049999999999 0.5515849999999999
0.5152800000000000 0.7081900000000000 0.5357399999999999
0.9869149999999999 0.6940800000000000 0.5412749999999998
0.7454649999999999 0.8030699999999998 0.5260599999999999
0.7597050000000001 0.7897700000000001 0.5322699999999999
0.7883650000000000 0.7611350000000000 0.5453599999999998
0.8013950000000001 0.7468700000000001 0.5515849999999999
0.7918099999999999 0.8070900000000000 0.5357399999999999
0.8059199999999999 0.7928350000000000 0.5412749999999998
0.6969299999999999 0.9423950000000000 0.5260599999999999
0.7102299999999999 0.9699350000000000 0.5322699999999999
0.7388650000000000 0.5272300000000000 0.5453599999999998
0.7531299999999999 0.5545250000000000 0.5515849999999999
0.6929099999999998 0.9847200000000000 0.5357399999999999
0.7071650000000000 0.5130850000000001 0.5412749999999998
0.7863783333333333 0.7136216666666666 0.7930366666666664
0.7855683333333332 0.7144316666666667 0.8048316666666665
0.7710933333333332 0.7289066666666666 0.8102266666666665
0.7425433333333331 0.7574566666666664 0.8091466666666666
0.7299183333333332 0.7700866666666665 0.8027116666666666
0.7163383333333332 0.7836616666666666 0.7834966666666665
0.7163283333333331 0.7836716666666667 0.7710316666666666
0.7311533333333332 0.7688466666666667 0.7659366666666666
0.7607183333333333 0.7392816666666666 0.7666666666666664
0.7734283333333334 0.7265716666666666 0.7732016666666666
0.7729183333333333 0.7270816666666666 0.7861116666666665
0.7582983333333332 0.7417016666666667 0.7917766666666666
0.7581833333333332 0.7418166666666667 0.8035216666666666
0.7298783333333332 0.7701216666666665 0.7902866666666664
0.7440983333333333 0.7559016666666667 0.7844966666666665
0.7448983333333332 0.7551016666666666 0.7725566666666666
0.7996583333333332 0.7003416666666666 0.8124666666666666
0.7022133333333332 0.7977866666666665 0.7638466666666665
0.5476233333333332 0.5952466666666666 0.6898166666666664
0.5748783333333334 0.6497566666666665 0.7022366666666665
0.5904383333333332 0.6808766666666666 0.7090816666666665
0.6173783333333333 0.7347566666666666 0.7218266666666665
0.5322933333333332 0.5645866666666666 0.6828216666666665
0.6324933333333332 0.7649866666666666 0.7288416666666665
0.5787983333333332 0.6090616666666665 0.6927266666666666
0.5930383333333332 0.6366016666666665 0.6989366666666664
0.6216983333333331 0.6938966666666665 0.7120266666666665
0.6347283333333332 0.7211916666666666 0.7182516666666665
0.6251433333333333 0.6513866666666666 0.7024066666666665
0.6392533333333332 0.6797516666666665 0.7079416666666666
0.7863783333333332 0.5727566666666666 0.7930366666666664
0.7855683333333332 0.5711366666666666 0.8048316666666665
0.7710933333333333 0.5421866666666666 0.8102266666666665
0.7425433333333332 0.9850866666666666 0.8091466666666666
0.7299133333333332 0.9598316666666666 0.8027116666666666
0.7163383333333332 0.9326766666666666 0.7834966666666665
0.7163283333333332 0.9326566666666665 0.7710316666666666
0.7311533333333332 0.9623066666666666 0.7659366666666666
0.7607183333333333 0.5214366666666667 0.7666666666666664
0.7734283333333333 0.5468566666666667 0.7732016666666666
0.7729183333333334 0.5458366666666666 0.7861116666666665
0.7582983333333333 0.5165966666666666 0.7917766666666666
0.7581833333333332 0.5163666666666666 0.8035216666666666
0.7298783333333333 0.9597566666666665 0.7902866666666664
0.7440983333333332 0.9881966666666665 0.7844966666666665
0.7448983333333332 0.9897966666666665 0.7725566666666666
0.7996583333333332 0.5993166666666666 0.8124666666666666
0.7022133333333332 0.9044266666666666 0.7638466666666665
0.9047533333333332 0.9523766666666666 0.6898166666666664
0.8502433333333331 0.9251216666666666 0.7022366666666665
0.8191233333333331 0.9095616666666664 0.7090816666666665
0.7652433333333331 0.8826216666666665 0.7218266666666665
0.9354133333333332 0.9677066666666666 0.6828216666666665
0.7350133333333332 0.8675066666666664 0.7288416666666665
0.8909383333333332 0.9697366666666667 0.6927266666666666
0.8633983333333330 0.9564366666666666 0.6989366666666664
0.8061033333333332 0.9278016666666665 0.7120266666666665
0.7788083333333332 0.9135366666666666 0.7182516666666665
0.8486133333333332 0.9737566666666666 0.7024066666666665
0.8202483333333331 0.9595016666666666 0.7079416666666666
0.9272433333333333 0.7136216666666667 0.7930366666666664
0.9288633333333333 0.7144316666666667 0.8048316666666665
0.9578133333333333 0.7289066666666667 0.8102266666666665
0.5149133333333332 0.7574566666666664 0.8091466666666666
0.5401683333333334 0.7700816666666667 0.8027116666666666
0.5673233333333333 0.7836616666666666 0.7834966666666665
0.5673433333333332 0.7836716666666667 0.7710316666666666
0.5376933333333332 0.7688466666666667 0.7659366666666666
0.9785633333333331 0.7392816666666666 0.7666666666666664
0.9531433333333331 0.7265716666666666 0.7732016666666666
0.9541633333333331 0.7270816666666666 0.7861116666666665
0.9834033333333333 0.7417016666666667 0.7917766666666666
0.9836333333333332 0.7418166666666667 0.8035216666666666
0.5402433333333333 0.7701216666666666 0.7902866666666664
0.5118033333333334 0.7559016666666667 0.7844966666666665
0.5102033333333332 0.7551016666666666 0.7725566666666666
0.9006833333333332 0.7003416666666666 0.8124666666666666
0.5955733333333332 0.7977866666666665 0.7638466666666665
0.5476233333333334 0.9523766666666666 0.6898166666666664
0.5748783333333334 0.9251216666666666 0.7022366666666665
0.5904383333333333 0.9095616666666666 0.7090816666666665
0.6173783333333333 0.8826216666666665 0.7218266666666665
0.5322933333333332 0.9677066666666666 0.6828216666666665
0.6324933333333332 0.8675066666666664 0.7288416666666665
0.5302633333333332 0.9212016666666666 0.6927266666666666
0.5435633333333332 0.9069616666666667 0.6989366666666664
0.5721983333333333 0.8783016666666666 0.7120266666666665
0.5864633333333332 0.8652716666666666 0.7182516666666665
0.5262433333333332 0.8748566666666666 0.7024066666666665
0.5404983333333332 0.8607466666666665 0.7079416666666666
0.8802883333333332 0.6197116666666667 0.5402966666666665
0.8810983333333332 0.6189016666666667 0.5285016666666665
0.8955733333333332 0.6044266666666667 0.5231066666666665
0.9241233333333332 0.5758766666666667 0.5241866666666666
0.9367533333333333 0.5632516666666667 0.5306216666666665
0.9503283333333333 0.5496716666666667 0.5498366666666665
0.9503383333333333 0.5496616666666666 0.5623016666666666
0.9355133333333334 0.5644866666666667 0.5673966666666665
0.9059483333333332 0.5940516666666666 0.5666666666666665
0.8932383333333332 0.6067616666666666 0.5601316666666666
0.8937483333333333 0.6062516666666666 0.5472216666666666
0.9083683333333332 0.5916316666666667 0.5415566666666666
0.9084833333333333 0.5915166666666667 0.5298116666666666
0.9367883333333332 0.5632116666666667 0.5430466666666666
0.9225683333333332 0.5774316666666667 0.5488366666666665
0.9217683333333332 0.5782316666666667 0.5607766666666666
0.8670083333333334 0.6329916666666666 0.5208666666666665
0.9644533333333333 0.5355466666666666 0.5694866666666667
0.7619133333333332 0.8809566666666665 0.6435166666666665
0.8164233333333331 0.9082116666666665 0.6310966666666665
0.8475433333333331 0.9237716666666664 0.6242516666666665
0.9014233333333331 0.9507116666666665 0.6115066666666665
0.7312533333333332 0.8656266666666667 0.6505116666666665
0.9316533333333331 0.9658266666666664 0.6044916666666665
0.7757283333333334 0.9121316666666666 0.6406066666666665
0.8032683333333330 0.9263716666666666 0.6343966666666665
0.8605633333333331 0.9550316666666665 0.6213066666666666
0.8878583333333331 0.9680616666666666 0.6150816666666666
0.8180533333333331 0.9584766666666665 0.6309266666666665
0.8464183333333331 0.9725866666666665 0.6253916666666666
0.8802883333333332 0.7605766666666667 0.5402966666666665
0.8810983333333333 0.7621966666666667 0.5285016666666665
0.8955733333333333 0.7911466666666668 0.5231066666666665
0.9241233333333333 0.8482466666666666 0.5241866666666666
0.9367483333333332 0.8735016666666666 0.5306216666666665
0.9503283333333331 0.9006566666666667 0.5498366666666665
0.9503383333333332 0.9006766666666667 0.5623016666666666
0.9355133333333331 0.8710266666666666 0.5673966666666665
0.9059483333333332 0.8118966666666666 0.5666666666666665
0.8932383333333332 0.7864766666666666 0.5601316666666666
0.8937483333333333 0.7874966666666666 0.5472216666666666
0.9083683333333332 0.8167366666666668 0.5415566666666666
0.9084833333333332 0.8169666666666666 0.5298116666666666
0.9367883333333333 0.8735766666666667 0.5430466666666666
0.9225683333333332 0.8451366666666666 0.5488366666666665
0.9217683333333333 0.8435366666666667 0.5607766666666666
0.8670083333333333 0.7340166666666667 0.5208666666666665
0.9644533333333333 0.9289066666666667 0.5694866666666667
0.6190433333333332 0.8809566666666665 0.6435166666666665
0.5917883333333332 0.9082116666666665 0.6310966666666665
0.5762283333333332 0.9237716666666664 0.6242516666666665
0.5492883333333333 0.9507116666666665 0.6115066666666665
0.6343733333333332 0.8656266666666667 0.6505116666666665
0.5341733333333333 0.9658266666666666 0.6044916666666665
0.5878683333333332 0.8635966666666666 0.6406066666666665
0.5736283333333332 0.8768966666666665 0.6343966666666665
0.5449683333333332 0.9055316666666666 0.6213066666666666
0.5319383333333332 0.9197966666666665 0.6150816666666666
0.5415233333333332 0.8595766666666667 0.6309266666666665
0.5274133333333332 0.8738316666666665 0.6253916666666666
0.7394233333333333 0.6197116666666667 0.5402966666666665
0.7378033333333333 0.6189016666666667 0.5285016666666665
0.7088533333333332 0.6044266666666667 0.5231066666666665
0.6517533333333334 0.5758766666666667 0.5241866666666666
0.6264983333333334 0.5632466666666667 0.5306216666666665
0.5993433333333333 0.5496716666666667 0.5498366666666665
0.5993233333333332 0.5496616666666668 0.5623016666666666
0.6289733333333334 0.5644866666666667 0.5673966666666665
0.6881033333333332 0.5940516666666666 0.5666666666666665
0.7135233333333332 0.6067616666666666 0.5601316666666666
0.7125033333333332 0.6062516666666666 0.5472216666666666
0.6832633333333332 0.5916316666666667 0.5415566666666666
0.6830333333333334 0.5915166666666667 0.5298116666666666
0.6264233333333333 0.5632116666666667 0.5430466666666666
0.6548633333333334 0.5774316666666667 0.5488366666666665
0.6564633333333333 0.5782316666666667 0.5607766666666666
0.7659833333333332 0.6329916666666666 0.5208666666666665
0.5710933333333333 0.5355466666666666 0.5694866666666667
0.6190433333333332 0.7380866666666666 0.6435166666666665
0.5917883333333332 0.6835766666666665 0.6310966666666665
0.5762283333333331 0.6524566666666666 0.6242516666666665
0.5492883333333333 0.5985766666666665 0.6115066666666665
0.6343733333333332 0.7687466666666666 0.6505116666666665
0.5341733333333332 0.5683466666666666 0.6044916666666665
0.6364033333333332 0.7242716666666665 0.6406066666666665
0.6231033333333332 0.6967316666666666 0.6343966666666665
0.5944683333333333 0.6394366666666665 0.6213066666666666
0.5802033333333333 0.6121416666666666 0.6150816666666666
0.6404233333333332 0.6819466666666666 0.6309266666666665
0.6261683333333332 0.6535816666666666 0.6253916666666666
0.5878683333333332 0.7242716666666665 0.6406066666666665
0.5736283333333332 0.6967316666666666 0.6343966666666665
0.5449683333333332 0.6394366666666665 0.6213066666666666
0.5319383333333332 0.6121416666666666 0.6150816666666666
0.5415233333333332 0.6819466666666666 0.6309266666666665
0.5274133333333332 0.6535816666666666 0.6253916666666666
0.7757283333333331 0.8635966666666666 0.6406066666666665
0.8032683333333330 0.8768966666666665 0.6343966666666665
0.8605633333333332 0.9055316666666666 0.6213066666666666
0.8878583333333331 0.9197966666666665 0.6150816666666666
0.8180533333333332 0.8595766666666667 0.6309266666666665
0.8464183333333331 0.8738316666666665 0.6253916666666666
0.6364033333333333 0.9121316666666666 0.6406066666666665
0.6231033333333332 0.9263716666666666 0.6343966666666665
0.5944683333333333 0.9550316666666665 0.6213066666666666
0.5802033333333333 0.9680616666666666 0.6150816666666666
0.6404233333333331 0.9584766666666665 0.6309266666666665
0.6261683333333331 0.9725866666666665 0.6253916666666666
0.8909383333333332 0.9212016666666666 0.6927266666666666
0.8633983333333330 0.9069616666666667 0.6989366666666664
0.8061033333333333 0.8783016666666666 0.7120266666666665
0.7788083333333331 0.8652716666666666 0.7182516666666665
0.8486133333333332 0.8748566666666666 0.7024066666666665
0.8202483333333331 0.8607466666666665 0.7079416666666666
0.5787983333333332 0.9697366666666667 0.6927266666666666
0.5930383333333332 0.9564366666666666 0.6989366666666664
0.6216983333333331 0.9278016666666665 0.7120266666666665
0.6347283333333332 0.9135366666666666 0.7182516666666665
0.6251433333333333 0.9737566666666666 0.7024066666666665
0.6392533333333332 0.9595016666666666 0.7079416666666666
0.5302633333333332 0.6090616666666665 0.6927266666666666
0.5435633333333332 0.6366016666666665 0.6989366666666664
0.5721983333333333 0.6938966666666665 0.7120266666666665
0.5864633333333332 0.7211916666666666 0.7182516666666665
0.5262433333333332 0.6513866666666666 0.7024066666666665
0.5404983333333332 0.6797516666666665 0.7079416666666666
0.6197116666666668 0.8802883333333335 0.9597033333333332
0.6189016666666667 0.8810983333333334 0.9714983333333331
0.6044266666666667 0.8955733333333334 0.9768933333333331
0.5758766666666667 0.9241233333333334 0.9758133333333331
0.5632516666666668 0.9367533333333333 0.9693783333333331
0.5496716666666667 0.9503283333333334 0.9501633333333330
0.5496616666666666 0.9503383333333333 0.9376983333333331
0.5644866666666667 0.9355133333333333 0.9326033333333331
0.5940516666666666 0.9059483333333334 0.9333333333333332
0.6067616666666666 0.8932383333333335 0.9398683333333331
0.6062516666666666 0.8937483333333335 0.9527783333333331
0.5916316666666667 0.9083683333333333 0.9584433333333331
0.5915166666666668 0.9084833333333334 0.9701883333333331
0.5632116666666667 0.9367883333333333 0.9569533333333332
0.5774316666666667 0.9225683333333334 0.9511633333333332
0.5782316666666667 0.9217683333333333 0.9392233333333332
0.6329916666666666 0.8670083333333335 0.9791333333333331
0.5355466666666666 0.9644533333333334 0.9305133333333332
0.8809566666666665 0.7619133333333332 0.8564833333333332
0.9082116666666665 0.8164233333333332 0.8689033333333332
0.9237716666666665 0.8475433333333332 0.8757483333333332
0.9507116666666665 0.9014233333333332 0.8884933333333332
0.8656266666666665 0.7312533333333333 0.8494883333333331
0.9658266666666666 0.9316533333333334 0.8955083333333331
0.9121316666666666 0.7757283333333332 0.8593933333333332
0.9263716666666666 0.8032683333333333 0.8656033333333332
0.9550316666666665 0.8605633333333333 0.8786933333333332
0.9680616666666666 0.8878583333333332 0.8849183333333331
0.9584766666666665 0.8180533333333332 0.8690733333333333
0.9725866666666666 0.8464183333333332 0.8746083333333332
0.6197116666666667 0.7394233333333333 0.9597033333333332
0.6189016666666667 0.7378033333333334 0.9714983333333331
0.6044266666666667 0.7088533333333333 0.9768933333333331
0.5758766666666667 0.6517533333333334 0.9758133333333331
0.5632466666666667 0.6264983333333334 0.9693783333333331
0.5496716666666667 0.5993433333333333 0.9501633333333330
0.5496616666666667 0.5993233333333332 0.9376983333333331
0.5644866666666667 0.6289733333333334 0.9326033333333331
0.5940516666666666 0.6881033333333333 0.9333333333333332
0.6067616666666666 0.7135233333333333 0.9398683333333331
0.6062516666666666 0.7125033333333333 0.9527783333333331
0.5916316666666667 0.6832633333333333 0.9584433333333331
0.5915166666666667 0.6830333333333334 0.9701883333333331
0.5632116666666667 0.6264233333333333 0.9569533333333332
0.5774316666666667 0.6548633333333334 0.9511633333333332
0.5782316666666667 0.6564633333333334 0.9392233333333332
0.6329916666666667 0.7659833333333333 0.9791333333333331
0.5355466666666666 0.5710933333333333 0.9305133333333332
0.7380866666666667 0.6190433333333333 0.8564833333333332
0.6835766666666666 0.5917883333333334 0.8689033333333332
0.6524566666666666 0.5762283333333333 0.8757483333333332
0.5985766666666666 0.5492883333333334 0.8884933333333332
0.7687466666666667 0.6343733333333333 0.8494883333333331
0.5683466666666667 0.5341733333333333 0.8955083333333331
0.7242716666666665 0.6364033333333333 0.8593933333333332
0.6967316666666666 0.6231033333333333 0.8656033333333332
0.6394366666666667 0.5944683333333334 0.8786933333333332
0.6121416666666666 0.5802033333333334 0.8849183333333331
0.6819466666666667 0.6404233333333333 0.8690733333333333
0.6535816666666666 0.6261683333333333 0.8746083333333332
0.7605766666666668 0.8802883333333335 0.9597033333333332
0.7621966666666666 0.8810983333333334 0.9714983333333331
0.7911466666666667 0.8955733333333334 0.9768933333333331
0.8482466666666666 0.9241233333333334 0.9758133333333331
0.8735016666666666 0.9367483333333333 0.9693783333333331
0.9006566666666667 0.9503283333333334 0.9501633333333330
0.9006766666666667 0.9503383333333333 0.9376983333333331
0.8710266666666666 0.9355133333333333 0.9326033333333331
0.8118966666666666 0.9059483333333334 0.9333333333333332
0.7864766666666666 0.8932383333333335 0.9398683333333331
0.7874966666666666 0.8937483333333335 0.9527783333333331
0.8167366666666667 0.9083683333333333 0.9584433333333331
0.8169666666666666 0.9084833333333334 0.9701883333333331
0.8735766666666667 0.9367883333333333 0.9569533333333332
0.8451366666666666 0.9225683333333334 0.9511633333333332
0.8435366666666666 0.9217683333333333 0.9392233333333332
0.7340166666666667 0.8670083333333335 0.9791333333333331
0.9289066666666665 0.9644533333333334 0.9305133333333332
0.8809566666666665 0.6190433333333333 0.8564833333333332
0.9082116666666666 0.5917883333333334 0.8689033333333332
0.9237716666666665 0.5762283333333333 0.8757483333333332
0.9507116666666665 0.5492883333333334 0.8884933333333332
0.8656266666666665 0.6343733333333333 0.8494883333333331
0.9658266666666666 0.5341733333333334 0.8955083333333331
0.8635966666666666 0.5878683333333333 0.8593933333333332
0.8768966666666665 0.5736283333333333 0.8656033333333332
0.9055316666666665 0.5449683333333333 0.8786933333333332
0.9197966666666664 0.5319383333333333 0.8849183333333331
0.8595766666666665 0.5415233333333334 0.8690733333333333
0.8738316666666666 0.5274133333333333 0.8746083333333332
0.7136216666666665 0.7863783333333332 0.7069633333333332
0.7144316666666666 0.7855683333333333 0.6951683333333332
0.7289066666666665 0.7710933333333333 0.6897733333333332
0.7574566666666666 0.7425433333333332 0.6908533333333332
0.7700866666666664 0.7299183333333332 0.6972883333333332
0.7836616666666666 0.7163383333333332 0.7165033333333332
0.7836716666666665 0.7163283333333331 0.7289683333333332
0.7688466666666665 0.7311533333333332 0.7340633333333332
0.7392816666666664 0.7607183333333333 0.7333333333333332
0.7265716666666664 0.7734283333333333 0.7267983333333332
0.7270816666666665 0.7729183333333333 0.7138883333333332
0.7417016666666666 0.7582983333333332 0.7082233333333332
0.7418166666666666 0.7581833333333332 0.6964783333333332
0.7701216666666664 0.7298783333333332 0.7097133333333332
0.7559016666666665 0.7440983333333332 0.7155033333333333
0.7551016666666664 0.7448983333333332 0.7274433333333332
0.7003416666666665 0.7996583333333332 0.6875333333333332
0.7977866666666664 0.7022133333333332 0.7361533333333332
0.5952466666666667 0.5476233333333334 0.8101833333333331
0.6497566666666666 0.5748783333333334 0.7977633333333333
0.6808766666666667 0.5904383333333333 0.7909183333333333
0.7347566666666667 0.6173783333333334 0.7781733333333332
0.5645866666666667 0.5322933333333333 0.8171783333333332
0.7649866666666666 0.6324933333333334 0.7711583333333333
0.6090616666666665 0.5787983333333333 0.8072733333333332
0.6366016666666666 0.5930383333333333 0.8010633333333331
0.6938966666666666 0.6216983333333332 0.7879733333333332
0.7211916666666666 0.6347283333333333 0.7817483333333332
0.6513866666666666 0.6251433333333334 0.7975933333333332
0.6797516666666665 0.6392533333333333 0.7920583333333332
0.7136216666666666 0.9272433333333332 0.7069633333333332
0.7144316666666666 0.9288633333333333 0.6951683333333332
0.7289066666666666 0.9578133333333334 0.6897733333333332
0.7574566666666664 0.5149133333333332 0.6908533333333332
0.7700816666666666 0.5401683333333333 0.6972883333333332
0.7836616666666665 0.5673233333333333 0.7165033333333332
0.7836716666666664 0.5673433333333332 0.7289683333333332
0.7688466666666665 0.5376933333333332 0.7340633333333332
0.7392816666666665 0.9785633333333331 0.7333333333333332
0.7265716666666665 0.9531433333333332 0.7267983333333332
0.7270816666666665 0.9541633333333330 0.7138883333333332
0.7417016666666666 0.9834033333333334 0.7082233333333332
0.7418166666666666 0.9836333333333332 0.6964783333333332
0.7701216666666665 0.5402433333333333 0.7097133333333332
0.7559016666666665 0.5118033333333333 0.7155033333333333
0.7551016666666664 0.5102033333333332 0.7274433333333332
0.7003416666666665 0.9006833333333332 0.6875333333333332
0.7977866666666664 0.5955733333333332 0.7361533333333332
0.9523766666666666 0.5476233333333334 0.8101833333333331
0.9251216666666666 0.5748783333333334 0.7977633333333333
0.9095616666666666 0.5904383333333334 0.7909183333333333
0.8826216666666666 0.6173783333333334 0.7781733333333332
0.9677066666666667 0.5322933333333333 0.8171783333333332
0.8675066666666666 0.6324933333333334 0.7711583333333333
0.9212016666666666 0.5302633333333333 0.8072733333333332
0.9069616666666667 0.5435633333333333 0.8010633333333331
0.8783016666666666 0.5721983333333334 0.7879733333333332
0.8652716666666666 0.5864633333333333 0.7817483333333332
0.8748566666666665 0.5262433333333333 0.7975933333333332
0.8607466666666665 0.5404983333333333 0.7920583333333332
0.5727566666666665 0.7863783333333332 0.7069633333333332
0.5711366666666665 0.7855683333333333 0.6951683333333332
0.5421866666666666 0.7710933333333333 0.6897733333333332
0.9850866666666664 0.7425433333333332 0.6908533333333332
0.9598316666666665 0.7299133333333333 0.6972883333333332
0.9326766666666665 0.7163383333333332 0.7165033333333332
0.9326566666666665 0.7163283333333333 0.7289683333333332
0.9623066666666664 0.7311533333333332 0.7340633333333332
0.5214366666666665 0.7607183333333333 0.7333333333333332
0.5468566666666665 0.7734283333333333 0.7267983333333332
0.5458366666666665 0.7729183333333333 0.7138883333333332
0.5165966666666666 0.7582983333333332 0.7082233333333332
0.5163666666666665 0.7581833333333332 0.6964783333333332
0.9597566666666664 0.7298783333333332 0.7097133333333332
0.9881966666666664 0.7440983333333332 0.7155033333333333
0.9897966666666664 0.7448983333333332 0.7274433333333332
0.5993166666666665 0.7996583333333332 0.6875333333333332
0.9044266666666665 0.7022133333333332 0.7361533333333332
0.9523766666666665 0.9047533333333332 0.8101833333333331
0.9251216666666664 0.8502433333333331 0.7977633333333333
0.9095616666666665 0.8191233333333333 0.7909183333333333
0.8826216666666665 0.7652433333333332 0.7781733333333332
0.9677066666666666 0.9354133333333331 0.8171783333333332
0.8675066666666665 0.7350133333333333 0.7711583333333333
0.9697366666666666 0.8909383333333333 0.8072733333333332
0.9564366666666666 0.8633983333333332 0.8010633333333331
0.9278016666666666 0.8061033333333334 0.7879733333333332
0.9135366666666666 0.7788083333333332 0.7817483333333332
0.9737566666666666 0.8486133333333333 0.7975933333333332
0.9595016666666666 0.8202483333333332 0.7920583333333332
0.9212016666666666 0.8909383333333333 0.8072733333333332
0.9069616666666666 0.8633983333333332 0.8010633333333331
0.8783016666666666 0.8061033333333334 0.7879733333333332
0.8652716666666666 0.7788083333333332 0.7817483333333332
0.8748566666666665 0.8486133333333333 0.7975933333333332
0.8607466666666665 0.8202483333333332 0.7920583333333332
0.6090616666666666 0.5302633333333333 0.8072733333333332
0.6366016666666666 0.5435633333333333 0.8010633333333331
0.6938966666666666 0.5721983333333334 0.7879733333333332
0.7211916666666667 0.5864633333333333 0.7817483333333332
0.6513866666666666 0.5262433333333333 0.7975933333333332
0.6797516666666666 0.5404983333333333 0.7920583333333332
0.9697366666666666 0.5787983333333333 0.8072733333333332
0.9564366666666666 0.5930383333333333 0.8010633333333331
0.9278016666666665 0.6216983333333332 0.7879733333333332
0.9135366666666666 0.6347283333333333 0.7817483333333332
0.9737566666666667 0.6251433333333334 0.7975933333333332
0.9595016666666666 0.6392533333333333 0.7920583333333332
0.7242716666666665 0.5878683333333333 0.8593933333333332
0.6967316666666666 0.5736283333333333 0.8656033333333332
0.6394366666666667 0.5449683333333333 0.8786933333333332
0.6121416666666666 0.5319383333333333 0.8849183333333331
0.6819466666666667 0.5415233333333334 0.8690733333333333
0.6535816666666667 0.5274133333333333 0.8746083333333332
0.9121316666666666 0.6364033333333333 0.8593933333333332
0.9263716666666666 0.6231033333333333 0.8656033333333332
0.9550316666666665 0.5944683333333334 0.8786933333333332
0.9680616666666666 0.5802033333333334 0.8849183333333331
0.9584766666666665 0.6404233333333333 0.8690733333333333
0.9725866666666665 0.6261683333333333 0.8746083333333332
0.8635966666666666 0.7757283333333332 0.8593933333333332
0.8768966666666665 0.8032683333333333 0.8656033333333332
0.9055316666666665 0.8605633333333333 0.8786933333333332
0.9197966666666665 0.8878583333333332 0.8849183333333331
0.8595766666666665 0.8180533333333332 0.8690733333333333
0.8738316666666666 0.8464183333333332 0.8746083333333332
0.4630449999999999 0.0369550000000000 0.1226050000000000
0.4369599999999999 0.0630400000000000 0.1520000000000000
0.4083799999999999 0.0916200000000000 0.1509150000000000
0.3867349999999999 0.1132650000000000 0.1400300000000000
0.3731699999999999 0.1268300000000000 0.1208350000000000
0.3986049999999999 0.1013950000000000 0.0908300000000000
0.4281650000000000 0.0718350000000000 0.0915600000000000
0.4500349999999999 0.0499650000000000 0.1026850000000000
0.2572500000000000 0.4327400000000000 0.0237450000000000
0.3230999999999999 0.0645850000000000 0.0535400000000000
0.3035800000000000 0.4745750000000000 0.0341600000000000
0.3280250000000000 0.0237850000000000 0.0424600000000000
0.4630449999999999 0.4260899999999999 0.1226050000000000
0.4369600000000000 0.3739200000000001 0.1520000000000000
0.4083800000000000 0.3167600000000000 0.1509150000000000
0.3867349999999999 0.2734699999999999 0.1400300000000000
0.3731699999999999 0.2463400000000000 0.1208350000000000
0.3986049999999999 0.2972100000000000 0.0908300000000000
0.4281650000000000 0.3563300000000000 0.0915600000000000
0.4500349999999999 0.4000699999999999 0.1026850000000000
0.0672600000000000 0.3245100000000000 0.0237450000000000
0.4354149999999999 0.2585150000000000 0.0535400000000000
0.0254250000000000 0.3290050000000000 0.0341600000000000
0.4762149999999999 0.3042400000000000 0.0424600000000000
0.0739100000000000 0.0369550000000000 0.1226050000000000
0.1260799999999999 0.0630400000000000 0.1520000000000000
0.1832399999999999 0.0916200000000000 0.1509150000000000
0.2265300000000000 0.1132650000000000 0.1400300000000000
0.2536599999999999 0.1268300000000000 0.1208350000000000
0.2027900000000000 0.1013950000000000 0.0908300000000000
0.1436700000000000 0.0718350000000000 0.0915600000000000
0.0999299999999999 0.0499650000000000 0.1026850000000000
0.1754900000000000 0.2427500000000000 0.0237450000000000
0.2414849999999999 0.1769000000000000 0.0535400000000000
0.1709950000000000 0.1964200000000000 0.0341600000000000
0.1957600000000000 0.1719750000000000 0.0424600000000000
0.0369550000000000 0.4630449999999999 0.3773949999999999
0.0630400000000000 0.4369600000000000 0.3479999999999999
0.0916200000000000 0.4083800000000000 0.3490849999999999
0.1132650000000000 0.3867349999999999 0.3599700000000000
0.1268300000000000 0.3731699999999999 0.3791649999999999
0.1013950000000000 0.3986050000000000 0.4091700000000000
0.0718350000000000 0.4281650000000000 0.4084399999999999
0.0499650000000000 0.4500350000000000 0.3973149999999999
0.4327400000000000 0.2572500000000000 0.4762549999999999
0.0645850000000000 0.3231000000000000 0.4464599999999999
0.4745750000000000 0.3035800000000000 0.4658399999999999
0.0237850000000000 0.3280250000000000 0.4575399999999999
0.0369550000000000 0.0739100000000000 0.3773949999999999
0.0630400000000000 0.1260800000000000 0.3479999999999999
0.0916200000000000 0.1832399999999999 0.3490849999999999
0.1132650000000000 0.2265300000000000 0.3599700000000000
0.1268300000000000 0.2536600000000000 0.3791649999999999
0.1013950000000000 0.2027900000000001 0.4091700000000000
0.0718350000000000 0.1436700000000000 0.4084399999999999
0.0499650000000000 0.0999299999999999 0.3973149999999999
0.2427500000000000 0.1754900000000000 0.4762549999999999
0.1768999999999999 0.2414850000000000 0.4464599999999999
0.1964200000000000 0.1709950000000000 0.4658399999999999
0.1719749999999999 0.1957600000000000 0.4575399999999999
0.4260899999999999 0.4630449999999999 0.3773949999999999
0.3739199999999999 0.4369600000000000 0.3479999999999999
0.3167600000000000 0.4083800000000000 0.3490849999999999
0.2734699999999999 0.3867349999999999 0.3599700000000000
0.2463399999999999 0.3731699999999999 0.3791649999999999
0.2972099999999999 0.3986050000000000 0.4091700000000000
0.3563300000000000 0.4281650000000000 0.4084399999999999
0.4000700000000000 0.4500350000000000 0.3973149999999999
0.3245099999999999 0.0672600000000000 0.4762549999999999
0.2585150000000001 0.4354150000000001 0.4464599999999999
0.3290049999999999 0.0254250000000000 0.4658399999999999
0.3042400000000001 0.4762150000000000 0.4575399999999999
0.2427500000000000 0.0672600000000000 0.4762549999999999
0.1769000000000000 0.4354150000000001 0.4464599999999999
0.1964200000000000 0.0254250000000000 0.4658399999999999
0.1719750000000000 0.4762150000000000 0.4575399999999999
0.4327400000000000 0.1754900000000000 0.4762549999999999
0.0645850000000000 0.2414850000000000 0.4464599999999999
0.4745750000000000 0.1709950000000000 0.4658399999999999
0.0237850000000000 0.1957600000000000 0.4575399999999999
0.3245100000000000 0.2572500000000000 0.4762549999999999
0.2585150000000000 0.3231000000000000 0.4464599999999999
0.3290049999999999 0.3035800000000000 0.4658399999999999
0.3042400000000000 0.3280250000000000 0.4575399999999999
0.0672600000000000 0.2427500000000000 0.0237450000000000
0.4354149999999999 0.1769000000000000 0.0535400000000000
0.0254250000000000 0.1964200000000000 0.0341600000000000
0.4762149999999999 0.1719750000000000 0.0424600000000000
0.2572500000000000 0.3245100000000000 0.0237450000000000
0.3230999999999999 0.2585150000000000 0.0535400000000000
0.3035800000000000 0.3290050000000000 0.0341600000000000
0.3280250000000000 0.3042400000000000 0.0424600000000000
0.1754900000000001 0.4327400000000000 0.0237450000000000
0.2414849999999999 0.0645850000000000 0.0535400000000000
0.1709950000000000 0.4745750000000000 0.0341600000000000
0.1957600000000000 0.0237850000000000 0.0424600000000000
0.2963783333333333 0.2036216666666666 0.2892716666666666
0.2702933333333332 0.2297066666666667 0.3186666666666666
0.2417133333333333 0.2582866666666666 0.3175816666666666
0.2200683333333333 0.2799316666666667 0.3066966666666666
0.2065033333333332 0.2934966666666666 0.2875016666666666
0.2319383333333333 0.2680616666666667 0.2574966666666666
0.2614983333333334 0.2385016666666666 0.2582266666666666
0.2833683333333333 0.2166316666666667 0.2693516666666666
0.0905833333333332 0.0994066666666666 0.1904116666666666
0.1564333333333333 0.2312516666666666 0.2202066666666666
0.1369133333333333 0.1412416666666667 0.2008266666666666
0.1613583333333332 0.1904516666666666 0.2091266666666666
0.2963783333333332 0.0927566666666666 0.2892716666666666
0.2702933333333333 0.0405866666666667 0.3186666666666666
0.2417133333333333 0.4834266666666666 0.3175816666666666
0.2200683333333333 0.4401366666666665 0.3066966666666666
0.2065033333333333 0.4130066666666666 0.2875016666666666
0.2319383333333332 0.4638766666666666 0.2574966666666666
0.2614983333333333 0.0229966666666667 0.2582266666666666
0.2833683333333333 0.0667366666666667 0.2693516666666666
0.4005933333333332 0.4911766666666666 0.1904116666666666
0.2687483333333333 0.4251816666666666 0.2202066666666666
0.3587583333333332 0.4956716666666666 0.2008266666666666
0.3095483333333333 0.4709066666666667 0.2091266666666666
0.4072433333333333 0.2036216666666667 0.2892716666666666
0.4594133333333332 0.2297066666666666 0.3186666666666666
0.0165733333333333 0.2582866666666666 0.3175816666666666
0.0598633333333333 0.2799316666666667 0.3066966666666666
0.0869933333333333 0.2934966666666666 0.2875016666666666
0.0361233333333334 0.2680616666666667 0.2574966666666666
0.4770033333333333 0.2385016666666666 0.2582266666666666
0.4332633333333333 0.2166316666666667 0.2693516666666666
0.0088233333333335 0.4094166666666667 0.1904116666666666
0.0748183333333333 0.3435666666666666 0.2202066666666666
0.0043283333333333 0.3630866666666666 0.2008266666666666
0.0290933333333333 0.3386416666666666 0.2091266666666666
0.3702883333333333 0.1297116666666667 0.0440616666666666
0.3963733333333332 0.1036266666666666 0.0146666666666667
0.4249533333333332 0.0750466666666667 0.0157516666666667
0.4465983333333333 0.0534016666666667 0.0266366666666667
0.4601633333333333 0.0398366666666666 0.0458316666666667
0.4347283333333332 0.0652716666666666 0.0758366666666666
0.4051683333333332 0.0948316666666666 0.0751066666666667
0.3832983333333332 0.1167016666666667 0.0639816666666666
0.2660733333333333 0.4239166666666666 0.1429216666666666
0.3979183333333333 0.4897666666666666 0.1131266666666666
0.3079083333333333 0.4702466666666666 0.1325066666666666
0.3571183333333332 0.4946916666666665 0.1242066666666666
0.3702883333333333 0.2405766666666667 0.0440616666666666
0.3963733333333332 0.2927466666666666 0.0146666666666667
0.4249533333333332 0.3499066666666666 0.0157516666666667
0.4465983333333333 0.3931966666666666 0.0266366666666667
0.4601633333333332 0.4203266666666666 0.0458316666666667
0.4347283333333333 0.3694566666666667 0.0758366666666666
0.4051683333333332 0.3103366666666666 0.0751066666666667
0.3832983333333332 0.2665966666666665 0.0639816666666666
0.0760833333333334 0.3421566666666666 0.1429216666666666
0.0102333333333333 0.4081516666666666 0.1131266666666666
0.0297533333333333 0.3376616666666666 0.1325066666666666
0.0053083333333333 0.3624266666666666 0.1242066666666666
0.2594233333333333 0.1297116666666667 0.0440616666666666
0.2072533333333333 0.1036266666666666 0.0146666666666667
0.1500933333333334 0.0750466666666667 0.0157516666666667
0.1068033333333333 0.0534016666666667 0.0266366666666667
0.0796733333333332 0.0398366666666667 0.0458316666666667
0.1305433333333332 0.0652716666666666 0.0758366666666666
0.1896633333333333 0.0948316666666666 0.0751066666666667
0.2334033333333334 0.1167016666666666 0.0639816666666666
0.1578433333333333 0.2339266666666666 0.1429216666666666
0.0918483333333333 0.1020816666666667 0.1131266666666666
0.1623383333333333 0.1920916666666667 0.1325066666666666
0.1375733333333333 0.1428816666666667 0.1242066666666666
0.0760833333333334 0.2339266666666666 0.1429216666666666
0.0102333333333333 0.1020816666666667 0.1131266666666666
0.0297533333333333 0.1920916666666667 0.1325066666666666
0.0053083333333333 0.1428816666666667 0.1242066666666666
0.2660733333333334 0.3421566666666666 0.1429216666666666
0.3979183333333332 0.4081516666666666 0.1131266666666666
0.3079083333333333 0.3376616666666666 0.1325066666666666
0.3571183333333332 0.3624266666666666 0.1242066666666666
0.1578433333333333 0.4239166666666666 0.1429216666666666
0.0918483333333333 0.4897666666666666 0.1131266666666666
0.1623383333333333 0.4702466666666666 0.1325066666666666
0.1375733333333333 0.4946916666666665 0.1242066666666666
0.4005933333333333 0.4094166666666667 0.1904116666666666
0.2687483333333333 0.3435666666666666 0.2202066666666666
0.3587583333333332 0.3630866666666666 0.2008266666666666
0.3095483333333333 0.3386416666666666 0.2091266666666666
0.0905833333333332 0.4911766666666666 0.1904116666666666
0.1564333333333333 0.4251816666666666 0.2202066666666666
0.1369133333333333 0.4956716666666666 0.2008266666666666
0.1613583333333333 0.4709066666666667 0.2091266666666666
0.0088233333333334 0.0994066666666666 0.1904116666666666
0.0748183333333333 0.2312516666666666 0.2202066666666666
0.0043283333333333 0.1412416666666667 0.2008266666666666
0.0290933333333333 0.1904516666666666 0.2091266666666666
0.1297116666666666 0.3702883333333333 0.4559383333333333
0.1036266666666666 0.3963733333333333 0.4853333333333332
0.0750466666666667 0.4249533333333333 0.4842483333333332
0.0534016666666667 0.4465983333333333 0.4733633333333332
0.0398366666666666 0.4601633333333333 0.4541683333333332
0.0652716666666666 0.4347283333333333 0.4241633333333333
0.0948316666666666 0.4051683333333332 0.4248933333333333
0.1167016666666667 0.3832983333333332 0.4360183333333332
0.4239166666666665 0.2660733333333333 0.3570783333333332
0.4897666666666666 0.3979183333333333 0.3868733333333332
0.4702466666666666 0.3079083333333333 0.3674933333333333
0.4946916666666666 0.3571183333333333 0.3757933333333332
0.1297116666666666 0.2594233333333333 0.4559383333333333
0.1036266666666666 0.2072533333333333 0.4853333333333332
0.0750466666666667 0.1500933333333334 0.4842483333333332
0.0534016666666667 0.1068033333333333 0.4733633333333332
0.0398366666666667 0.0796733333333333 0.4541683333333332
0.0652716666666667 0.1305433333333332 0.4241633333333333
0.0948316666666667 0.1896633333333333 0.4248933333333333
0.1167016666666666 0.2334033333333334 0.4360183333333332
0.2339266666666666 0.1578433333333333 0.3570783333333332
0.1020816666666666 0.0918483333333333 0.3868733333333332
0.1920916666666666 0.1623383333333333 0.3674933333333333
0.1428816666666666 0.1375733333333333 0.3757933333333332
0.2405766666666666 0.3702883333333333 0.4559383333333333
0.2927466666666666 0.3963733333333333 0.4853333333333332
0.3499066666666666 0.4249533333333333 0.4842483333333332
0.3931966666666666 0.4465983333333333 0.4733633333333332
0.4203266666666666 0.4601633333333333 0.4541683333333332
0.3694566666666666 0.4347283333333333 0.4241633333333333
0.3103366666666665 0.4051683333333332 0.4248933333333333
0.2665966666666665 0.3832983333333332 0.4360183333333332
0.3421566666666666 0.0760833333333334 0.3570783333333332
0.4081516666666666 0.0102333333333333 0.3868733333333332
0.3376616666666666 0.0297533333333333 0.3674933333333333
0.3624266666666667 0.0053083333333333 0.3757933333333332
0.2036216666666666 0.2963783333333332 0.2107283333333333
0.2297066666666666 0.2702933333333332 0.1813333333333333
0.2582866666666666 0.2417133333333333 0.1824183333333333
0.2799316666666666 0.2200683333333333 0.1933033333333333
0.2934966666666666 0.2065033333333332 0.2124983333333333
0.2680616666666666 0.2319383333333334 0.2425033333333333
0.2385016666666667 0.2614983333333334 0.2417733333333333
0.2166316666666667 0.2833683333333333 0.2306483333333333
0.0994066666666666 0.0905833333333332 0.3095883333333332
0.2312516666666666 0.1564333333333333 0.2797933333333333
0.1412416666666667 0.1369133333333333 0.2991733333333332
0.1904516666666666 0.1613583333333333 0.2908733333333333
0.2036216666666667 0.4072433333333333 0.2107283333333333
0.2297066666666666 0.4594133333333333 0.1813333333333333
0.2582866666666666 0.0165733333333333 0.1824183333333333
0.2799316666666666 0.0598633333333333 0.1933033333333333
0.2934966666666666 0.0869933333333333 0.2124983333333333
0.2680616666666666 0.0361233333333333 0.2425033333333333
0.2385016666666666 0.4770033333333333 0.2417733333333333
0.2166316666666667 0.4332633333333333 0.2306483333333333
0.4094166666666665 0.0088233333333334 0.3095883333333332
0.3435666666666666 0.0748183333333333 0.2797933333333333
0.3630866666666666 0.0043283333333333 0.2991733333333332
0.3386416666666666 0.0290933333333333 0.2908733333333333
0.0927566666666666 0.2963783333333332 0.2107283333333333
0.0405866666666667 0.2702933333333333 0.1813333333333333
0.4834266666666666 0.2417133333333333 0.1824183333333333
0.4401366666666665 0.2200683333333333 0.1933033333333333
0.4130066666666666 0.2065033333333333 0.2124983333333333
0.4638766666666665 0.2319383333333333 0.2425033333333333
0.0229966666666667 0.2614983333333333 0.2417733333333333
0.0667366666666667 0.2833683333333333 0.2306483333333333
0.4911766666666665 0.4005933333333332 0.3095883333333332
0.4251816666666666 0.2687483333333333 0.2797933333333333
0.4956716666666665 0.3587583333333332 0.2991733333333332
0.4709066666666666 0.3095483333333333 0.2908733333333333
0.4094166666666666 0.4005933333333332 0.3095883333333332
0.3435666666666666 0.2687483333333333 0.2797933333333333
0.3630866666666666 0.3587583333333332 0.2991733333333332
0.3386416666666666 0.3095483333333333 0.2908733333333333
0.0994066666666666 0.0088233333333334 0.3095883333333332
0.2312516666666666 0.0748183333333333 0.2797933333333333
0.1412416666666667 0.0043283333333333 0.2991733333333332
0.1904516666666666 0.0290933333333333 0.2908733333333333
0.4911766666666665 0.0905833333333332 0.3095883333333332
0.4251816666666667 0.1564333333333333 0.2797933333333333
0.4956716666666666 0.1369133333333333 0.2991733333333332
0.4709066666666667 0.1613583333333333 0.2908733333333333
0.2339266666666666 0.0760833333333334 0.3570783333333332
0.1020816666666666 0.0102333333333333 0.3868733333333332
0.1920916666666666 0.0297533333333333 0.3674933333333333
0.1428816666666666 0.0053083333333333 0.3757933333333332
0.4239166666666666 0.1578433333333333 0.3570783333333332
0.4897666666666666 0.0918483333333333 0.3868733333333332
0.4702466666666666 0.1623383333333333 0.3674933333333333
0.4946916666666666 0.1375733333333333 0.3757933333333332
0.3421566666666666 0.2660733333333333 0.3570783333333332
0.4081516666666666 0.3979183333333333 0.3868733333333332
0.3376616666666666 0.3079083333333333 0.3674933333333333
0.3624266666666666 0.3571183333333333 0.3757933333333332
0.4630449999999999 0.0369550000000000 0.6226049999999999
0.4369600000000000 0.0630400000000000 0.6519999999999999
0.4083799999999999 0.0916200000000000 0.6509149999999999
0.3867349999999999 0.1132650000000000 0.6400299999999999
0.3731699999999999 0.1268300000000000 0.6208349999999999
0.3986049999999999 0.1013950000000000 0.5908299999999999
0.4281650000000000 0.0718350000000000 0.5915599999999999
0.4500350000000000 0.0499650000000000 0.6026849999999999
0.2572500000000000 0.4327400000000000 0.5237449999999999
0.3230999999999999 0.0645850000000000 0.5535399999999999
0.3035800000000000 0.4745750000000000 0.5341599999999999
0.3280249999999999 0.0237850000000000 0.5424599999999998
0.4630449999999999 0.4260900000000000 0.6226049999999999
0.4369600000000000 0.3739200000000000 0.6519999999999999
0.4083800000000000 0.3167600000000000 0.6509149999999999
0.3867349999999999 0.2734700000000000 0.6400299999999999
0.3731699999999999 0.2463400000000000 0.6208349999999999
0.3986049999999999 0.2972099999999999 0.5908299999999999
0.4281650000000000 0.3563300000000000 0.5915599999999999
0.4500349999999999 0.4000700000000000 0.6026849999999999
0.0672600000000000 0.3245100000000000 0.5237449999999999
0.4354149999999999 0.2585150000000000 0.5535399999999999
0.0254250000000000 0.3290050000000000 0.5341599999999999
0.4762149999999999 0.3042400000000000 0.5424599999999998
0.0739100000000000 0.0369550000000000 0.6226049999999999
0.1260799999999999 0.0630400000000000 0.6519999999999999
0.1832399999999999 0.0916200000000000 0.6509149999999999
0.2265300000000000 0.1132650000000000 0.6400299999999999
0.2536599999999999 0.1268300000000000 0.6208349999999999
0.2027900000000000 0.1013950000000000 0.5908299999999999
0.1436700000000000 0.0718350000000000 0.5915599999999999
0.0999299999999999 0.0499650000000000 0.6026849999999999
0.1754900000000000 0.2427500000000000 0.5237449999999999
0.2414849999999999 0.1769000000000000 0.5535399999999999
0.1709950000000000 0.1964200000000000 0.5341599999999999
0.1957600000000000 0.1719750000000000 0.5424599999999998
0.0369550000000000 0.4630450000000000 0.8773949999999997
0.0630400000000000 0.4369600000000000 0.8479999999999999
0.0916200000000000 0.4083800000000000 0.8490849999999998
0.1132650000000000 0.3867350000000000 0.8599699999999998
0.1268300000000000 0.3731700000000000 0.8791649999999999
0.1013950000000000 0.3986050000000000 0.9091699999999999
0.0718350000000000 0.4281650000000000 0.9084399999999998
0.0499650000000000 0.4500350000000000 0.8973149999999999
0.4327400000000000 0.2572500000000000 0.9762549999999999
0.0645850000000000 0.3230999999999999 0.9464600000000000
0.4745750000000000 0.3035800000000000 0.9658399999999998
0.0237850000000000 0.3280250000000000 0.9575399999999999
0.0369550000000000 0.0739100000000000 0.8773949999999997
0.0630400000000000 0.1260799999999999 0.8479999999999999
0.0916200000000000 0.1832399999999999 0.8490849999999998
0.1132650000000000 0.2265300000000000 0.8599699999999998
0.1268300000000000 0.2536600000000000 0.8791649999999999
0.1013950000000000 0.2027900000000000 0.9091699999999999
0.0718350000000000 0.1436700000000000 0.9084399999999998
0.0499650000000000 0.0999299999999999 0.8973149999999999
0.2427500000000000 0.1754900000000000 0.9762549999999999
0.1768999999999999 0.2414849999999999 0.9464600000000000
0.1964200000000000 0.1709950000000000 0.9658399999999998
0.1719749999999999 0.1957600000000000 0.9575399999999999
0.4260899999999999 0.4630450000000000 0.8773949999999997
0.3739200000000000 0.4369600000000000 0.8479999999999999
0.3167600000000000 0.4083800000000000 0.8490849999999998
0.2734700000000000 0.3867350000000000 0.8599699999999998
0.2463400000000000 0.3731700000000000 0.8791649999999999
0.2972099999999999 0.3986050000000000 0.9091699999999999
0.3563300000000000 0.4281650000000000 0.9084399999999998
0.4000699999999999 0.4500350000000000 0.8973149999999999
0.3245099999999999 0.0672600000000000 0.9762549999999999
0.2585150000000000 0.4354150000000000 0.9464600000000000
0.3290049999999999 0.0254250000000000 0.9658399999999998
0.3042400000000000 0.4762149999999999 0.9575399999999999
0.2427500000000000 0.0672600000000000 0.9762549999999999
0.1769000000000000 0.4354150000000000 0.9464600000000000
0.1964200000000000 0.0254250000000000 0.9658399999999998
0.1719750000000000 0.4762149999999999 0.9575399999999999
0.4327399999999999 0.1754900000000000 0.9762549999999999
0.0645850000000000 0.2414849999999999 0.9464600000000000
0.4745750000000000 0.1709950000000000 0.9658399999999998
0.0237850000000000 0.1957600000000000 0.9575399999999999
0.3245100000000000 0.2572500000000000 0.9762549999999999
0.2585149999999999 0.3230999999999999 0.9464600000000000
0.3290049999999999 0.3035800000000000 0.9658399999999998
0.3042400000000000 0.3280250000000000 0.9575399999999999
0.0672600000000000 0.2427500000000000 0.5237449999999999
0.4354149999999999 0.1769000000000000 0.5535399999999999
0.0254250000000000 0.1964200000000000 0.5341599999999999
0.4762149999999999 0.1719750000000000 0.5424599999999998
0.2572499999999999 0.3245100000000000 0.5237449999999999
0.3230999999999999 0.2585150000000000 0.5535399999999999
0.3035800000000000 0.3290050000000000 0.5341599999999999
0.3280250000000000 0.3042400000000000 0.5424599999999998
0.1754900000000001 0.4327400000000000 0.5237449999999999
0.2414849999999999 0.0645850000000000 0.5535399999999999
0.1709950000000000 0.4745750000000000 0.5341599999999999
0.1957600000000000 0.0237850000000000 0.5424599999999998
0.2963783333333332 0.2036216666666666 0.7892716666666665
0.2702933333333333 0.2297066666666667 0.8186666666666664
0.2417133333333333 0.2582866666666667 0.8175816666666665
0.2200683333333333 0.2799316666666667 0.8066966666666665
0.2065033333333332 0.2934966666666666 0.7875016666666665
0.2319383333333333 0.2680616666666666 0.7574966666666665
0.2614983333333333 0.2385016666666666 0.7582266666666665
0.2833683333333333 0.2166316666666666 0.7693516666666665
0.0905833333333332 0.0994066666666666 0.6904116666666665
0.1564333333333333 0.2312516666666666 0.7202066666666664
0.1369133333333333 0.1412416666666667 0.7008266666666666
0.1613583333333332 0.1904516666666667 0.7091266666666666
0.2963783333333332 0.0927566666666666 0.7892716666666665
0.2702933333333333 0.0405866666666667 0.8186666666666664
0.2417133333333334 0.4834266666666667 0.8175816666666665
0.2200683333333333 0.4401366666666666 0.8066966666666665
0.2065033333333333 0.4130066666666666 0.7875016666666665
0.2319383333333333 0.4638766666666666 0.7574966666666665
0.2614983333333333 0.0229966666666667 0.7582266666666665
0.2833683333333333 0.0667366666666667 0.7693516666666665
0.4005933333333332 0.4911766666666665 0.6904116666666665
0.2687483333333333 0.4251816666666666 0.7202066666666664
0.3587583333333332 0.4956716666666665 0.7008266666666666
0.3095483333333333 0.4709066666666666 0.7091266666666666
0.4072433333333333 0.2036216666666667 0.7892716666666665
0.4594133333333333 0.2297066666666666 0.8186666666666664
0.0165733333333333 0.2582866666666667 0.8175816666666665
0.0598633333333333 0.2799316666666667 0.8066966666666665
0.0869933333333333 0.2934966666666666 0.7875016666666665
0.0361233333333333 0.2680616666666666 0.7574966666666665
0.4770033333333332 0.2385016666666666 0.7582266666666665
0.4332633333333332 0.2166316666666666 0.7693516666666665
0.0088233333333334 0.4094166666666667 0.6904116666666665
0.0748183333333333 0.3435666666666666 0.7202066666666664
0.0043283333333333 0.3630866666666666 0.7008266666666666
0.0290933333333333 0.3386416666666666 0.7091266666666666
0.3702883333333332 0.1297116666666667 0.5440616666666666
0.3963733333333332 0.1036266666666667 0.5146666666666665
0.4249533333333332 0.0750466666666667 0.5157516666666665
0.4465983333333333 0.0534016666666667 0.5266366666666665
0.4601633333333333 0.0398366666666666 0.5458316666666666
0.4347283333333332 0.0652716666666666 0.5758366666666667
0.4051683333333332 0.0948316666666666 0.5751066666666665
0.3832983333333332 0.1167016666666667 0.5639816666666665
0.2660733333333334 0.4239166666666666 0.6429216666666665
0.3979183333333333 0.4897666666666667 0.6131266666666665
0.3079083333333333 0.4702466666666667 0.6325066666666666
0.3571183333333333 0.4946916666666666 0.6242066666666666
0.3702883333333333 0.2405766666666667 0.5440616666666666
0.3963733333333332 0.2927466666666665 0.5146666666666665
0.4249533333333332 0.3499066666666665 0.5157516666666665
0.4465983333333333 0.3931966666666666 0.5266366666666665
0.4601633333333332 0.4203266666666666 0.5458316666666666
0.4347283333333333 0.3694566666666666 0.5758366666666667
0.4051683333333332 0.3103366666666666 0.5751066666666665
0.3832983333333332 0.2665966666666665 0.5639816666666665
0.0760833333333334 0.3421566666666667 0.6429216666666665
0.0102333333333333 0.4081516666666667 0.6131266666666665
0.0297533333333333 0.3376616666666666 0.6325066666666666
0.0053083333333333 0.3624266666666667 0.6242066666666666
0.2594233333333333 0.1297116666666667 0.5440616666666666
0.2072533333333333 0.1036266666666667 0.5146666666666665
0.1500933333333334 0.0750466666666667 0.5157516666666665
0.1068033333333333 0.0534016666666667 0.5266366666666665
0.0796733333333333 0.0398366666666667 0.5458316666666666
0.1305433333333332 0.0652716666666667 0.5758366666666667
0.1896633333333332 0.0948316666666666 0.5751066666666665
0.2334033333333334 0.1167016666666667 0.5639816666666665
0.1578433333333333 0.2339266666666666 0.6429216666666665
0.0918483333333333 0.1020816666666666 0.6131266666666665
0.1623383333333333 0.1920916666666667 0.6325066666666666
0.1375733333333333 0.1428816666666666 0.6242066666666666
0.0760833333333334 0.2339266666666666 0.6429216666666665
0.0102333333333333 0.1020816666666666 0.6131266666666665
0.0297533333333333 0.1920916666666667 0.6325066666666666
0.0053083333333333 0.1428816666666666 0.6242066666666666
0.2660733333333334 0.3421566666666667 0.6429216666666665
0.3979183333333333 0.4081516666666667 0.6131266666666665
0.3079083333333333 0.3376616666666666 0.6325066666666666
0.3571183333333333 0.3624266666666667 0.6242066666666666
0.1578433333333333 0.4239166666666666 0.6429216666666665
0.0918483333333333 0.4897666666666667 0.6131266666666665
0.1623383333333333 0.4702466666666667 0.6325066666666666
0.1375733333333333 0.4946916666666666 0.6242066666666666
0.4005933333333333 0.4094166666666667 0.6904116666666665
0.2687483333333333 0.3435666666666666 0.7202066666666664
0.3587583333333332 0.3630866666666666 0.7008266666666666
0.3095483333333333 0.3386416666666666 0.7091266666666666
0.0905833333333332 0.4911766666666665 0.6904116666666665
0.1564333333333333 0.4251816666666666 0.7202066666666664
0.1369133333333333 0.4956716666666665 0.7008266666666666
0.1613583333333333 0.4709066666666666 0.7091266666666666
0.0088233333333334 0.0994066666666666 0.6904116666666665
0.0748183333333333 0.2312516666666666 0.7202066666666664
0.0043283333333333 0.1412416666666667 0.7008266666666666
0.0290933333333333 0.1904516666666667 0.7091266666666666
0.1297116666666666 0.3702883333333333 0.9559383333333331
0.1036266666666666 0.3963733333333332 0.9853333333333332
0.0750466666666667 0.4249533333333332 0.9842483333333331
0.0534016666666666 0.4465983333333333 0.9733633333333331
0.0398366666666666 0.4601633333333332 0.9541683333333331
0.0652716666666666 0.4347283333333333 0.9241633333333332
0.0948316666666666 0.4051683333333332 0.9248933333333331
0.1167016666666667 0.3832983333333332 0.9360183333333331
0.4239166666666666 0.2660733333333334 0.8570783333333333
0.4897666666666666 0.3979183333333333 0.8868733333333332
0.4702466666666666 0.3079083333333333 0.8674933333333332
0.4946916666666666 0.3571183333333333 0.8757933333333332
0.1297116666666666 0.2594233333333333 0.9559383333333331
0.1036266666666667 0.2072533333333333 0.9853333333333332
0.0750466666666667 0.1500933333333334 0.9842483333333331
0.0534016666666667 0.1068033333333334 0.9733633333333331
0.0398366666666667 0.0796733333333333 0.9541683333333331
0.0652716666666667 0.1305433333333333 0.9241633333333332
0.0948316666666667 0.1896633333333333 0.9248933333333331
0.1167016666666666 0.2334033333333334 0.9360183333333331
0.2339266666666666 0.1578433333333333 0.8570783333333333
0.1020816666666667 0.0918483333333333 0.8868733333333332
0.1920916666666667 0.1623383333333333 0.8674933333333332
0.1428816666666666 0.1375733333333333 0.8757933333333332
0.2405766666666666 0.3702883333333333 0.9559383333333331
0.2927466666666665 0.3963733333333332 0.9853333333333332
0.3499066666666665 0.4249533333333332 0.9842483333333331
0.3931966666666665 0.4465983333333333 0.9733633333333331
0.4203266666666666 0.4601633333333332 0.9541683333333331
0.3694566666666666 0.4347283333333333 0.9241633333333332
0.3103366666666665 0.4051683333333332 0.9248933333333331
0.2665966666666665 0.3832983333333332 0.9360183333333331
0.3421566666666666 0.0760833333333333 0.8570783333333333
0.4081516666666666 0.0102333333333333 0.8868733333333332
0.3376616666666666 0.0297533333333333 0.8674933333333332
0.3624266666666667 0.0053083333333333 0.8757933333333332
0.2036216666666666 0.2963783333333332 0.7107283333333332
0.2297066666666666 0.2702933333333333 0.6813333333333332
0.2582866666666667 0.2417133333333333 0.6824183333333332
0.2799316666666667 0.2200683333333333 0.6933033333333333
0.2934966666666666 0.2065033333333332 0.7124983333333332
0.2680616666666666 0.2319383333333333 0.7425033333333332
0.2385016666666666 0.2614983333333333 0.7417733333333332
0.2166316666666667 0.2833683333333333 0.7306483333333332
0.0994066666666666 0.0905833333333332 0.8095883333333331
0.2312516666666666 0.1564333333333333 0.7797933333333332
0.1412416666666667 0.1369133333333333 0.7991733333333332
0.1904516666666666 0.1613583333333333 0.7908733333333331
0.2036216666666667 0.4072433333333333 0.7107283333333332
0.2297066666666666 0.4594133333333333 0.6813333333333332
0.2582866666666667 0.0165733333333333 0.6824183333333332
0.2799316666666667 0.0598633333333333 0.6933033333333333
0.2934966666666666 0.0869933333333333 0.7124983333333332
0.2680616666666666 0.0361233333333333 0.7425033333333332
0.2385016666666666 0.4770033333333332 0.7417733333333332
0.2166316666666666 0.4332633333333332 0.7306483333333332
0.4094166666666666 0.0088233333333334 0.8095883333333331
0.3435666666666666 0.0748183333333333 0.7797933333333332
0.3630866666666666 0.0043283333333333 0.7991733333333332
0.3386416666666666 0.0290933333333333 0.7908733333333331
0.0927566666666666 0.2963783333333332 0.7107283333333332
0.0405866666666667 0.2702933333333333 0.6813333333333332
0.4834266666666666 0.2417133333333333 0.6824183333333332
0.4401366666666665 0.2200683333333333 0.6933033333333333
0.4130066666666666 0.2065033333333333 0.7124983333333332
0.4638766666666665 0.2319383333333333 0.7425033333333332
0.0229966666666667 0.2614983333333333 0.7417733333333332
0.0667366666666667 0.2833683333333333 0.7306483333333332
0.4911766666666665 0.4005933333333333 0.8095883333333331
0.4251816666666666 0.2687483333333333 0.7797933333333332
0.4956716666666666 0.3587583333333333 0.7991733333333332
0.4709066666666666 0.3095483333333333 0.7908733333333331
0.4094166666666666 0.4005933333333333 0.8095883333333331
0.3435666666666666 0.2687483333333333 0.7797933333333332
0.3630866666666666 0.3587583333333333 0.7991733333333332
0.3386416666666666 0.3095483333333333 0.7908733333333331
0.0994066666666666 0.0088233333333334 0.8095883333333331
0.2312516666666666 0.0748183333333333 0.7797933333333332
0.1412416666666667 0.0043283333333333 0.7991733333333332
0.1904516666666666 0.0290933333333333 0.7908733333333331
0.4911766666666665 0.0905833333333332 0.8095883333333331
0.4251816666666666 0.1564333333333333 0.7797933333333332
0.4956716666666666 0.1369133333333333 0.7991733333333332
0.4709066666666666 0.1613583333333333 0.7908733333333331
0.2339266666666666 0.0760833333333333 0.8570783333333333
0.1020816666666666 0.0102333333333333 0.8868733333333332
0.1920916666666666 0.0297533333333333 0.8674933333333332
0.1428816666666666 0.0053083333333333 0.8757933333333332
0.4239166666666666 0.1578433333333333 0.8570783333333333
0.4897666666666666 0.0918483333333333 0.8868733333333332
0.4702466666666666 0.1623383333333333 0.8674933333333332
0.4946916666666666 0.1375733333333333 0.8757933333333332
0.3421566666666666 0.2660733333333334 0.8570783333333333
0.4081516666666666 0.3979183333333333 0.8868733333333332
0.3376616666666666 0.3079083333333333 0.8674933333333332
0.3624266666666666 0.3571183333333333 0.8757933333333332
0.4630449999999999 0.5369550000000000 0.1226050000000000
0.4369600000000000 0.5630400000000001 0.1520000000000000
0.4083800000000000 0.5916200000000001 0.1509150000000000
0.3867349999999999 0.6132649999999999 0.1400300000000000
0.3731699999999999 0.6268300000000000 0.1208350000000000
0.3986050000000000 0.6013949999999999 0.0908300000000000
0.4281650000000000 0.5718349999999999 0.0915600000000000
0.4500350000000000 0.5499650000000000 0.1026850000000000
0.2572500000000000 0.9327399999999999 0.0237450000000000
0.3230999999999999 0.5645849999999999 0.0535400000000000
0.3035800000000000 0.9745749999999999 0.0341600000000000
0.3280250000000000 0.5237849999999999 0.0424600000000000
0.4630449999999999 0.9260899999999999 0.1226050000000000
0.4369599999999999 0.8739199999999999 0.1520000000000000
0.4083800000000000 0.8167600000000000 0.1509150000000000
0.3867349999999999 0.7734699999999999 0.1400300000000000
0.3731699999999999 0.7463400000000000 0.1208350000000000
0.3986050000000000 0.7972100000000000 0.0908300000000000
0.4281650000000000 0.8563300000000000 0.0915600000000000
0.4500349999999999 0.9000699999999999 0.1026850000000000
0.0672600000000000 0.8245099999999999 0.0237450000000000
0.4354149999999999 0.7585149999999999 0.0535400000000000
0.0254250000000000 0.8290049999999999 0.0341600000000000
0.4762150000000000 0.8042400000000001 0.0424600000000000
0.0739100000000000 0.5369550000000000 0.1226050000000000
0.1260800000000000 0.5630400000000001 0.1520000000000000
0.1832400000000000 0.5916200000000001 0.1509150000000000
0.2265300000000000 0.6132649999999999 0.1400300000000000
0.2536599999999999 0.6268300000000000 0.1208350000000000
0.2027900000000000 0.6013949999999999 0.0908300000000000
0.1436700000000000 0.5718349999999999 0.0915600000000000
0.0999300000000000 0.5499650000000000 0.1026850000000000
0.1754900000000001 0.7427500000000000 0.0237450000000000
0.2414850000000000 0.6768999999999999 0.0535400000000000
0.1709950000000001 0.6964199999999999 0.0341600000000000
0.1957600000000000 0.6719750000000000 0.0424600000000000
0.0369550000000002 0.9630449999999999 0.3773949999999999
0.0630400000000001 0.9369600000000000 0.3479999999999999
0.0916200000000000 0.9083800000000000 0.3490849999999999
0.1132650000000000 0.8867349999999999 0.3599700000000000
0.1268300000000000 0.8731699999999999 0.3791649999999999
0.1013950000000001 0.8986050000000000 0.4091700000000000
0.0718350000000001 0.9281650000000000 0.4084399999999999
0.0499650000000001 0.9500350000000000 0.3973149999999999
0.4327400000000001 0.7572500000000001 0.4762549999999999
0.0645850000000001 0.8230999999999999 0.4464599999999999
0.4745750000000000 0.8035800000000000 0.4658399999999999
0.0237850000000001 0.8280250000000001 0.4575399999999999
0.0369550000000000 0.5739099999999999 0.3773949999999999
0.0630400000000000 0.6260799999999999 0.3479999999999999
0.0916200000000000 0.6832399999999998 0.3490849999999999
0.1132649999999999 0.7265299999999999 0.3599700000000000
0.1268300000000000 0.7536600000000000 0.3791649999999999
0.1013950000000001 0.7027900000000000 0.4091700000000000
0.0718350000000000 0.6436700000000000 0.4084399999999999
0.0499650000000000 0.5999300000000000 0.3973149999999999
0.2427500000000001 0.6754900000000000 0.4762549999999999
0.1769000000000000 0.7414849999999999 0.4464599999999999
0.1964200000000000 0.6709950000000000 0.4658399999999999
0.1719750000000000 0.6957599999999999 0.4575399999999999
0.4260900000000000 0.9630449999999999 0.3773949999999999
0.3739200000000000 0.9369600000000000 0.3479999999999999
0.3167600000000000 0.9083800000000000 0.3490849999999999
0.2734699999999999 0.8867349999999999 0.3599700000000000
0.2463400000000000 0.8731699999999999 0.3791649999999999
0.2972100000000000 0.8986050000000000 0.4091700000000000
0.3563300000000000 0.9281650000000000 0.4084399999999999
0.4000700000000000 0.9500350000000000 0.3973149999999999
0.3245099999999999 0.5672600000000000 0.4762549999999999
0.2585150000000001 0.9354150000000000 0.4464599999999999
0.3290050000000000 0.5254250000000001 0.4658399999999999
0.3042400000000001 0.9762150000000001 0.4575399999999999
0.2427500000000000 0.5672600000000000 0.4762549999999999
0.1769000000000001 0.9354150000000000 0.4464599999999999
0.1964200000000000 0.5254250000000001 0.4658399999999999
0.1719750000000001 0.9762150000000001 0.4575399999999999
0.4327400000000000 0.6754900000000000 0.4762549999999999
0.0645850000000000 0.7414849999999999 0.4464599999999999
0.4745750000000000 0.6709950000000000 0.4658399999999999
0.0237850000000001 0.6957599999999999 0.4575399999999999
0.3245100000000000 0.7572500000000001 0.4762549999999999
0.2585150000000001 0.8230999999999999 0.4464599999999999
0.3290049999999999 0.8035800000000000 0.4658399999999999
0.3042400000000000 0.8280250000000001 0.4575399999999999
0.0672600000000001 0.7427500000000000 0.0237450000000000
0.4354149999999999 0.6768999999999999 0.0535400000000000
0.0254250000000000 0.6964199999999999 0.0341600000000000
0.4762150000000000 0.6719750000000000 0.0424600000000000
0.2572500000000000 0.8245099999999999 0.0237450000000000
0.3231000000000000 0.7585149999999999 0.0535400000000000
0.3035800000000000 0.8290049999999999 0.0341600000000000
0.3280250000000000 0.8042400000000001 0.0424600000000000
0.1754900000000000 0.9327399999999999 0.0237450000000000
0.2414849999999999 0.5645849999999999 0.0535400000000000
0.1709950000000000 0.9745749999999999 0.0341600000000000
0.1957600000000000 0.5237849999999999 0.0424600000000000
0.2963783333333334 0.7036216666666665 0.2892716666666666
0.2702933333333332 0.7297066666666666 0.3186666666666666
0.2417133333333333 0.7582866666666667 0.3175816666666666
0.2200683333333334 0.7799316666666668 0.3066966666666666
0.2065033333333333 0.7934966666666665 0.2875016666666666
0.2319383333333333 0.7680616666666665 0.2574966666666666
0.2614983333333334 0.7385016666666665 0.2582266666666666
0.2833683333333333 0.7166316666666666 0.2693516666666666
0.0905833333333333 0.5994066666666668 0.1904116666666666
0.1564333333333333 0.7312516666666665 0.2202066666666666
0.1369133333333334 0.6412416666666667 0.2008266666666666
0.1613583333333333 0.6904516666666666 0.2091266666666666
0.2963783333333333 0.5927566666666665 0.2892716666666666
0.2702933333333333 0.5405866666666665 0.3186666666666666
0.2417133333333334 0.9834266666666666 0.3175816666666666
0.2200683333333334 0.9401366666666666 0.3066966666666666
0.2065033333333332 0.9130066666666664 0.2875016666666666
0.2319383333333333 0.9638766666666664 0.2574966666666666
0.2614983333333333 0.5229966666666667 0.2582266666666666
0.2833683333333333 0.5667366666666666 0.2693516666666666
0.4005933333333332 0.9911766666666666 0.1904116666666666
0.2687483333333333 0.9251816666666666 0.2202066666666666
0.3587583333333333 0.9956716666666665 0.2008266666666666
0.3095483333333333 0.9709066666666666 0.2091266666666666
0.4072433333333333 0.7036216666666666 0.2892716666666666
0.4594133333333333 0.7297066666666666 0.3186666666666666
0.0165733333333333 0.7582866666666667 0.3175816666666666
0.0598633333333335 0.7799316666666668 0.3066966666666666
0.0869933333333334 0.7934966666666665 0.2875016666666666
0.0361233333333334 0.7680616666666665 0.2574966666666666
0.4770033333333333 0.7385016666666665 0.2582266666666666
0.4332633333333332 0.7166316666666666 0.2693516666666666
0.0088233333333334 0.9094166666666667 0.1904116666666666
0.0748183333333333 0.8435666666666666 0.2202066666666666
0.0043283333333333 0.8630866666666664 0.2008266666666666
0.0290933333333333 0.8386416666666665 0.2091266666666666
0.3702883333333333 0.6297116666666667 0.0440616666666666
0.3963733333333332 0.6036266666666666 0.0146666666666667
0.4249533333333333 0.5750466666666667 0.0157516666666667
0.4465983333333333 0.5534016666666667 0.0266366666666667
0.4601633333333333 0.5398366666666666 0.0458316666666667
0.4347283333333333 0.5652716666666665 0.0758366666666666
0.4051683333333333 0.5948316666666665 0.0751066666666667
0.3832983333333333 0.6167016666666667 0.0639816666666666
0.2660733333333333 0.9239166666666666 0.1429216666666666
0.3979183333333333 0.9897666666666667 0.1131266666666666
0.3079083333333333 0.9702466666666666 0.1325066666666666
0.3571183333333333 0.9946916666666665 0.1242066666666666
0.3702883333333333 0.7405766666666665 0.0440616666666666
0.3963733333333332 0.7927466666666665 0.0146666666666667
0.4249533333333333 0.8499066666666665 0.0157516666666667
0.4465983333333333 0.8931966666666665 0.0266366666666667
0.4601633333333332 0.9203266666666665 0.0458316666666667
0.4347283333333333 0.8694566666666667 0.0758366666666666
0.4051683333333333 0.8103366666666666 0.0751066666666667
0.3832983333333332 0.7665966666666665 0.0639816666666666
0.0760833333333333 0.8421566666666666 0.1429216666666666
0.0102333333333333 0.9081516666666667 0.1131266666666666
0.0297533333333333 0.8376616666666665 0.1325066666666666
0.0053083333333333 0.8624266666666667 0.1242066666666666
0.2594233333333333 0.6297116666666667 0.0440616666666666
0.2072533333333333 0.6036266666666666 0.0146666666666667
0.1500933333333334 0.5750466666666667 0.0157516666666667
0.1068033333333334 0.5534016666666667 0.0266366666666667
0.0796733333333333 0.5398366666666666 0.0458316666666667
0.1305433333333332 0.5652716666666665 0.0758366666666666
0.1896633333333333 0.5948316666666665 0.0751066666666667
0.2334033333333334 0.6167016666666667 0.0639816666666666
0.1578433333333333 0.7339266666666665 0.1429216666666666
0.0918483333333333 0.6020816666666665 0.1131266666666666
0.1623383333333333 0.6920916666666665 0.1325066666666666
0.1375733333333333 0.6428816666666667 0.1242066666666666
0.0760833333333333 0.7339266666666665 0.1429216666666666
0.0102333333333333 0.6020816666666665 0.1131266666666666
0.0297533333333333 0.6920916666666665 0.1325066666666666
0.0053083333333333 0.6428816666666667 0.1242066666666666
0.2660733333333333 0.8421566666666666 0.1429216666666666
0.3979183333333333 0.9081516666666667 0.1131266666666666
0.3079083333333332 0.8376616666666665 0.1325066666666666
0.3571183333333333 0.8624266666666667 0.1242066666666666
0.1578433333333333 0.9239166666666666 0.1429216666666666
0.0918483333333333 0.9897666666666667 0.1131266666666666
0.1623383333333333 0.9702466666666666 0.1325066666666666
0.1375733333333333 0.9946916666666665 0.1242066666666666
0.4005933333333332 0.9094166666666667 0.1904116666666666
0.2687483333333334 0.8435666666666666 0.2202066666666666
0.3587583333333332 0.8630866666666664 0.2008266666666666
0.3095483333333333 0.8386416666666665 0.2091266666666666
0.0905833333333332 0.9911766666666666 0.1904116666666666
0.1564333333333333 0.9251816666666666 0.2202066666666666
0.1369133333333333 0.9956716666666665 0.2008266666666666
0.1613583333333332 0.9709066666666666 0.2091266666666666
0.0088233333333335 0.5994066666666668 0.1904116666666666
0.0748183333333333 0.7312516666666665 0.2202066666666666
0.0043283333333333 0.6412416666666667 0.2008266666666666
0.0290933333333333 0.6904516666666666 0.2091266666666666
0.1297116666666667 0.8702883333333333 0.4559383333333333
0.1036266666666667 0.8963733333333332 0.4853333333333332
0.0750466666666668 0.9249533333333333 0.4842483333333332
0.0534016666666668 0.9465983333333333 0.4733633333333332
0.0398366666666667 0.9601633333333331 0.4541683333333332
0.0652716666666667 0.9347283333333334 0.4241633333333333
0.0948316666666666 0.9051683333333334 0.4248933333333333
0.1167016666666669 0.8832983333333334 0.4360183333333332
0.4239166666666666 0.7660733333333334 0.3570783333333332
0.4897666666666667 0.8979183333333334 0.3868733333333332
0.4702466666666667 0.8079083333333333 0.3674933333333333
0.4946916666666666 0.8571183333333334 0.3757933333333332
0.1297116666666667 0.7594233333333333 0.4559383333333333
0.1036266666666667 0.7072533333333333 0.4853333333333332
0.0750466666666666 0.6500933333333334 0.4842483333333332
0.0534016666666667 0.6068033333333334 0.4733633333333332
0.0398366666666667 0.5796733333333333 0.4541683333333332
0.0652716666666667 0.6305433333333331 0.4241633333333333
0.0948316666666667 0.6896633333333333 0.4248933333333333
0.1167016666666666 0.7334033333333333 0.4360183333333332
0.2339266666666666 0.6578433333333332 0.3570783333333332
0.1020816666666667 0.5918483333333332 0.3868733333333332
0.1920916666666667 0.6623383333333331 0.3674933333333333
0.1428816666666667 0.6375733333333332 0.3757933333333332
0.2405766666666667 0.8702883333333333 0.4559383333333333
0.2927466666666667 0.8963733333333332 0.4853333333333332
0.3499066666666667 0.9249533333333333 0.4842483333333332
0.3931966666666666 0.9465983333333333 0.4733633333333332
0.4203266666666666 0.9601633333333331 0.4541683333333332
0.3694566666666667 0.9347283333333334 0.4241633333333333
0.3103366666666666 0.9051683333333334 0.4248933333333333
0.2665966666666667 0.8832983333333334 0.4360183333333332
0.3421566666666666 0.5760833333333333 0.3570783333333332
0.4081516666666666 0.5102333333333332 0.3868733333333332
0.3376616666666666 0.5297533333333332 0.3674933333333333
0.3624266666666666 0.5053083333333331 0.3757933333333332
0.2036216666666666 0.7963783333333331 0.2107283333333333
0.2297066666666666 0.7702933333333333 0.1813333333333333
0.2582866666666667 0.7417133333333333 0.1824183333333333
0.2799316666666667 0.7200683333333334 0.1933033333333333
0.2934966666666666 0.7065033333333333 0.2124983333333333
0.2680616666666667 0.7319383333333334 0.2425033333333333
0.2385016666666666 0.7614983333333333 0.2417733333333333
0.2166316666666667 0.7833683333333332 0.2306483333333333
0.0994066666666667 0.5905833333333332 0.3095883333333332
0.2312516666666666 0.6564333333333333 0.2797933333333333
0.1412416666666667 0.6369133333333333 0.2991733333333332
0.1904516666666667 0.6613583333333332 0.2908733333333333
0.2036216666666667 0.9072433333333332 0.2107283333333333
0.2297066666666666 0.9594133333333332 0.1813333333333333
0.2582866666666667 0.5165733333333333 0.1824183333333333
0.2799316666666667 0.5598633333333335 0.1933033333333333
0.2934966666666666 0.5869933333333333 0.2124983333333333
0.2680616666666666 0.5361233333333333 0.2425033333333333
0.2385016666666666 0.9770033333333330 0.2417733333333333
0.2166316666666666 0.9332633333333331 0.2306483333333333
0.4094166666666666 0.5088233333333334 0.3095883333333332
0.3435666666666667 0.5748183333333333 0.2797933333333333
0.3630866666666666 0.5043283333333332 0.2991733333333332
0.3386416666666666 0.5290933333333333 0.2908733333333333
0.0927566666666666 0.7963783333333331 0.2107283333333333
0.0405866666666666 0.7702933333333333 0.1813333333333333
0.4834266666666667 0.7417133333333333 0.1824183333333333
0.4401366666666667 0.7200683333333334 0.1933033333333333
0.4130066666666666 0.7065033333333333 0.2124983333333333
0.4638766666666666 0.7319383333333334 0.2425033333333333
0.0229966666666666 0.7614983333333333 0.2417733333333333
0.0667366666666667 0.7833683333333332 0.2306483333333333
0.4911766666666665 0.9005933333333334 0.3095883333333332
0.4251816666666666 0.7687483333333331 0.2797933333333333
0.4956716666666666 0.8587583333333334 0.2991733333333332
0.4709066666666666 0.8095483333333332 0.2908733333333333
0.4094166666666666 0.9005933333333334 0.3095883333333332
0.3435666666666666 0.7687483333333331 0.2797933333333333
0.3630866666666667 0.8587583333333334 0.2991733333333332
0.3386416666666666 0.8095483333333332 0.2908733333333333
0.0994066666666667 0.5088233333333334 0.3095883333333332
0.2312516666666667 0.5748183333333333 0.2797933333333333
0.1412416666666667 0.5043283333333332 0.2991733333333332
0.1904516666666666 0.5290933333333333 0.2908733333333333
0.4911766666666665 0.5905833333333332 0.3095883333333332
0.4251816666666666 0.6564333333333333 0.2797933333333333
0.4956716666666666 0.6369133333333333 0.2991733333333332
0.4709066666666667 0.6613583333333332 0.2908733333333333
0.2339266666666666 0.5760833333333333 0.3570783333333332
0.1020816666666667 0.5102333333333332 0.3868733333333332
0.1920916666666667 0.5297533333333332 0.3674933333333333
0.1428816666666667 0.5053083333333331 0.3757933333333332
0.4239166666666666 0.6578433333333332 0.3570783333333332
0.4897666666666666 0.5918483333333332 0.3868733333333332
0.4702466666666666 0.6623383333333331 0.3674933333333333
0.4946916666666666 0.6375733333333332 0.3757933333333332
0.3421566666666667 0.7660733333333334 0.3570783333333332
0.4081516666666667 0.8979183333333334 0.3868733333333332
0.3376616666666666 0.8079083333333333 0.3674933333333333
0.3624266666666667 0.8571183333333334 0.3757933333333332
0.4630449999999999 0.5369549999999998 0.6226049999999999
0.4369600000000000 0.5630399999999999 0.6519999999999999
0.4083800000000000 0.5916199999999999 0.6509149999999999
0.3867350000000000 0.6132649999999998 0.6400299999999999
0.3731699999999999 0.6268299999999999 0.6208349999999999
0.3986049999999999 0.6013950000000000 0.5908299999999999
0.4281650000000000 0.5718350000000000 0.5915599999999999
0.4500350000000000 0.5499650000000000 0.6026849999999999
0.2572499999999999 0.9327400000000000 0.5237449999999999
0.3230999999999999 0.5645850000000000 0.5535399999999999
0.3035800000000000 0.9745750000000000 0.5341599999999999
0.3280250000000000 0.5237849999999999 0.5424599999999998
0.4630449999999999 0.9260899999999999 0.6226049999999999
0.4369600000000000 0.8739199999999999 0.6519999999999999
0.4083800000000000 0.8167599999999999 0.6509149999999999
0.3867350000000000 0.7734699999999999 0.6400299999999999
0.3731699999999999 0.7463399999999999 0.6208349999999999
0.3986050000000000 0.7972100000000001 0.5908299999999999
0.4281650000000000 0.8563300000000001 0.5915599999999999
0.4500350000000000 0.9000699999999999 0.6026849999999999
0.0672600000000000 0.8245100000000000 0.5237449999999999
0.4354149999999999 0.7585150000000001 0.5535399999999999
0.0254250000000000 0.8290050000000000 0.5341599999999999
0.4762150000000000 0.8042400000000002 0.5424599999999998
0.0739100000000000 0.5369550000000000 0.6226049999999999
0.1260800000000000 0.5630399999999999 0.6519999999999999
0.1832399999999999 0.5916199999999999 0.6509149999999999
0.2265300000000000 0.6132649999999998 0.6400299999999999
0.2536600000000000 0.6268299999999999 0.6208349999999999
0.2027900000000000 0.6013950000000000 0.5908299999999999
0.1436699999999999 0.5718350000000000 0.5915599999999999
0.0999300000000000 0.5499650000000000 0.6026849999999999
0.1754900000000001 0.7427500000000000 0.5237449999999999
0.2414849999999999 0.6769000000000001 0.5535399999999999
0.1709950000000000 0.6964200000000000 0.5341599999999999
0.1957600000000001 0.6719750000000000 0.5424599999999998
0.0369550000000001 0.9630449999999998 0.8773949999999997
0.0630400000000001 0.9369599999999999 0.8479999999999999
0.0916200000000000 0.9083799999999999 0.8490849999999998
0.1132650000000000 0.8867349999999998 0.8599699999999998
0.1268299999999999 0.8731699999999998 0.8791649999999999
0.1013950000000001 0.8986050000000001 0.9091699999999999
0.0718350000000001 0.9281650000000000 0.9084399999999998
0.0499650000000001 0.9500350000000000 0.8973149999999999
0.4327400000000000 0.7572500000000001 0.9762549999999999
0.0645850000000001 0.8231000000000001 0.9464600000000000
0.4745750000000000 0.8035800000000000 0.9658399999999998
0.0237850000000001 0.8280250000000001 0.9575399999999999
0.0369550000000000 0.5739100000000000 0.8773949999999997
0.0630400000000000 0.6260800000000000 0.8479999999999999
0.0916200000000000 0.6832400000000000 0.8490849999999998
0.1132650000000000 0.7265300000000000 0.8599699999999998
0.1268299999999999 0.7536599999999999 0.8791649999999999
0.1013950000000001 0.7027900000000000 0.9091699999999999
0.0718350000000000 0.6436700000000000 0.9084399999999998
0.0499650000000000 0.5999300000000000 0.8973149999999999
0.2427500000000000 0.6754900000000000 0.9762549999999999
0.1769000000000000 0.7414849999999999 0.9464600000000000
0.1964200000000000 0.6709950000000000 0.9658399999999998
0.1719750000000000 0.6957599999999999 0.9575399999999999
0.4260900000000000 0.9630449999999998 0.8773949999999997
0.3739200000000000 0.9369599999999999 0.8479999999999999
0.3167600000000000 0.9083799999999999 0.8490849999999998
0.2734699999999999 0.8867349999999998 0.8599699999999998
0.2463399999999999 0.8731699999999998 0.8791649999999999
0.2972100000000000 0.8986050000000001 0.9091699999999999
0.3563300000000001 0.9281650000000000 0.9084399999999998
0.4000700000000000 0.9500350000000000 0.8973149999999999
0.3245099999999999 0.5672600000000000 0.9762549999999999
0.2585150000000001 0.9354150000000001 0.9464600000000000
0.3290050000000000 0.5254250000000000 0.9658399999999998
0.3042400000000001 0.9762150000000002 0.9575399999999999
0.2427499999999999 0.5672600000000000 0.9762549999999999
0.1769000000000001 0.9354150000000001 0.9464600000000000
0.1964200000000000 0.5254250000000000 0.9658399999999998
0.1719750000000000 0.9762150000000002 0.9575399999999999
0.4327400000000000 0.6754900000000000 0.9762549999999999
0.0645850000000000 0.7414849999999999 0.9464600000000000
0.4745750000000000 0.6709950000000000 0.9658399999999998
0.0237850000000001 0.6957599999999999 0.9575399999999999
0.3245100000000000 0.7572500000000001 0.9762549999999999
0.2585150000000001 0.8231000000000001 0.9464600000000000
0.3290049999999999 0.8035800000000000 0.9658399999999998
0.3042400000000000 0.8280250000000001 0.9575399999999999
0.0672600000000000 0.7427500000000000 0.5237449999999999
0.4354149999999999 0.6769000000000001 0.5535399999999999
0.0254250000000000 0.6964200000000000 0.5341599999999999
0.4762150000000000 0.6719750000000000 0.5424599999999998
0.2572500000000000 0.8245100000000000 0.5237449999999999
0.3231000000000000 0.7585150000000001 0.5535399999999999
0.3035800000000000 0.8290050000000000 0.5341599999999999
0.3280250000000001 0.8042400000000002 0.5424599999999998
0.1754900000000000 0.9327400000000000 0.5237449999999999
0.2414849999999999 0.5645850000000000 0.5535399999999999
0.1709950000000000 0.9745750000000000 0.5341599999999999
0.1957600000000000 0.5237849999999999 0.5424599999999998
0.2963783333333334 0.7036216666666666 0.7892716666666665
0.2702933333333333 0.7297066666666667 0.8186666666666664
0.2417133333333333 0.7582866666666666 0.8175816666666665
0.2200683333333333 0.7799316666666667 0.8066966666666665
0.2065033333333332 0.7934966666666665 0.7875016666666665
0.2319383333333334 0.7680616666666666 0.7574966666666665
0.2614983333333334 0.7385016666666666 0.7582266666666665
0.2833683333333333 0.7166316666666667 0.7693516666666665
0.0905833333333333 0.5994066666666666 0.6904116666666665
0.1564333333333333 0.7312516666666665 0.7202066666666664
0.1369133333333334 0.6412416666666666 0.7008266666666666
0.1613583333333333 0.6904516666666666 0.7091266666666666
0.2963783333333333 0.5927566666666666 0.7892716666666665
0.2702933333333333 0.5405866666666667 0.8186666666666664
0.2417133333333333 0.9834266666666664 0.8175816666666665
0.2200683333333333 0.9401366666666665 0.8066966666666665
0.2065033333333332 0.9130066666666664 0.7875016666666665
0.2319383333333333 0.9638766666666665 0.7574966666666665
0.2614983333333333 0.5229966666666667 0.7582266666666665
0.2833683333333333 0.5667366666666667 0.7693516666666665
0.4005933333333333 0.9911766666666666 0.6904116666666665
0.2687483333333333 0.9251816666666666 0.7202066666666664
0.3587583333333332 0.9956716666666666 0.7008266666666666
0.3095483333333333 0.9709066666666666 0.7091266666666666
0.4072433333333333 0.7036216666666667 0.7892716666666665
0.4594133333333333 0.7297066666666666 0.8186666666666664
0.0165733333333332 0.7582866666666666 0.8175816666666665
0.0598633333333334 0.7799316666666667 0.8066966666666665
0.0869933333333333 0.7934966666666665 0.7875016666666665
0.0361233333333334 0.7680616666666666 0.7574966666666665
0.4770033333333333 0.7385016666666666 0.7582266666666665
0.4332633333333332 0.7166316666666667 0.7693516666666665
0.0088233333333334 0.9094166666666665 0.6904116666666665
0.0748183333333333 0.8435666666666667 0.7202066666666664
0.0043283333333333 0.8630866666666666 0.7008266666666666
0.0290933333333333 0.8386416666666665 0.7091266666666666
0.3702883333333333 0.6297116666666667 0.5440616666666666
0.3963733333333332 0.6036266666666666 0.5146666666666665
0.4249533333333332 0.5750466666666668 0.5157516666666665
0.4465983333333333 0.5534016666666667 0.5266366666666665
0.4601633333333333 0.5398366666666666 0.5458316666666666
0.4347283333333333 0.5652716666666666 0.5758366666666667
0.4051683333333332 0.5948316666666666 0.5751066666666665
0.3832983333333333 0.6167016666666667 0.5639816666666665
0.2660733333333334 0.9239166666666665 0.6429216666666665
0.3979183333333333 0.9897666666666666 0.6131266666666665
0.3079083333333333 0.9702466666666665 0.6325066666666666
0.3571183333333333 0.9946916666666665 0.6242066666666666
0.3702883333333333 0.7405766666666667 0.5440616666666666
0.3963733333333332 0.7927466666666666 0.5146666666666665
0.4249533333333332 0.8499066666666665 0.5157516666666665
0.4465983333333332 0.8931966666666666 0.5266366666666665
0.4601633333333333 0.9203266666666665 0.5458316666666666
0.4347283333333333 0.8694566666666667 0.5758366666666667
0.4051683333333333 0.8103366666666666 0.5751066666666665
0.3832983333333332 0.7665966666666666 0.5639816666666665
0.0760833333333332 0.8421566666666666 0.6429216666666665
0.0102333333333334 0.9081516666666666 0.6131266666666665
0.0297533333333333 0.8376616666666665 0.6325066666666666
0.0053083333333333 0.8624266666666667 0.6242066666666666
0.2594233333333333 0.6297116666666667 0.5440616666666666
0.2072533333333333 0.6036266666666666 0.5146666666666665
0.1500933333333334 0.5750466666666668 0.5157516666666665
0.1068033333333334 0.5534016666666667 0.5266366666666665
0.0796733333333333 0.5398366666666666 0.5458316666666666
0.1305433333333332 0.5652716666666666 0.5758366666666667
0.1896633333333333 0.5948316666666666 0.5751066666666665
0.2334033333333334 0.6167016666666667 0.5639816666666665
0.1578433333333333 0.7339266666666665 0.6429216666666665
0.0918483333333333 0.6020816666666665 0.6131266666666665
0.1623383333333333 0.6920916666666665 0.6325066666666666
0.1375733333333334 0.6428816666666666 0.6242066666666666
0.0760833333333334 0.7339266666666665 0.6429216666666665
0.0102333333333333 0.6020816666666665 0.6131266666666665
0.0297533333333333 0.6920916666666665 0.6325066666666666
0.0053083333333333 0.6428816666666666 0.6242066666666666
0.2660733333333333 0.8421566666666666 0.6429216666666665
0.3979183333333334 0.9081516666666666 0.6131266666666665
0.3079083333333332 0.8376616666666665 0.6325066666666666
0.3571183333333333 0.8624266666666667 0.6242066666666666
0.1578433333333333 0.9239166666666665 0.6429216666666665
0.0918483333333333 0.9897666666666666 0.6131266666666665
0.1623383333333333 0.9702466666666665 0.6325066666666666
0.1375733333333333 0.9946916666666665 0.6242066666666666
0.4005933333333333 0.9094166666666665 0.6904116666666665
0.2687483333333333 0.8435666666666667 0.7202066666666664
0.3587583333333332 0.8630866666666666 0.7008266666666666
0.3095483333333333 0.8386416666666665 0.7091266666666666
0.0905833333333333 0.9911766666666666 0.6904116666666665
0.1564333333333334 0.9251816666666666 0.7202066666666664
0.1369133333333334 0.9956716666666666 0.7008266666666666
0.1613583333333332 0.9709066666666666 0.7091266666666666
0.0088233333333335 0.5994066666666666 0.6904116666666665
0.0748183333333333 0.7312516666666665 0.7202066666666664
0.0043283333333333 0.6412416666666666 0.7008266666666666
0.0290933333333333 0.6904516666666666 0.7091266666666666
0.1297116666666667 0.8702883333333333 0.9559383333333331
0.1036266666666668 0.8963733333333334 0.9853333333333332
0.0750466666666668 0.9249533333333334 0.9842483333333331
0.0534016666666668 0.9465983333333333 0.9733633333333331
0.0398366666666667 0.9601633333333333 0.9541683333333331
0.0652716666666667 0.9347283333333335 0.9241633333333332
0.0948316666666667 0.9051683333333334 0.9248933333333331
0.1167016666666669 0.8832983333333334 0.9360183333333331
0.4239166666666666 0.7660733333333333 0.8570783333333333
0.4897666666666667 0.8979183333333335 0.8868733333333332
0.4702466666666666 0.8079083333333332 0.8674933333333332
0.4946916666666666 0.8571183333333333 0.8757933333333332
0.1297116666666668 0.7594233333333335 0.9559383333333331
0.1036266666666667 0.7072533333333333 0.9853333333333332
0.0750466666666666 0.6500933333333334 0.9842483333333331
0.0534016666666667 0.6068033333333334 0.9733633333333331
0.0398366666666667 0.5796733333333333 0.9541683333333331
0.0652716666666667 0.6305433333333332 0.9241633333333332
0.0948316666666667 0.6896633333333333 0.9248933333333331
0.1167016666666667 0.7334033333333334 0.9360183333333331
0.2339266666666666 0.6578433333333333 0.8570783333333333
0.1020816666666666 0.5918483333333333 0.8868733333333332
0.1920916666666666 0.6623383333333333 0.8674933333333332
0.1428816666666666 0.6375733333333333 0.8757933333333332
0.2405766666666667 0.8702883333333333 0.9559383333333331
0.2927466666666667 0.8963733333333334 0.9853333333333332
0.3499066666666666 0.9249533333333334 0.9842483333333331
0.3931966666666666 0.9465983333333333 0.9733633333333331
0.4203266666666666 0.9601633333333333 0.9541683333333331
0.3694566666666667 0.9347283333333335 0.9241633333333332
0.3103366666666666 0.9051683333333334 0.9248933333333331
0.2665966666666667 0.8832983333333334 0.9360183333333331
0.3421566666666667 0.5760833333333333 0.8570783333333333
0.4081516666666667 0.5102333333333333 0.8868733333333332
0.3376616666666667 0.5297533333333333 0.8674933333333332
0.3624266666666666 0.5053083333333332 0.8757933333333332
0.2036216666666666 0.7963783333333332 0.7107283333333332
0.2297066666666666 0.7702933333333332 0.6813333333333332
0.2582866666666667 0.7417133333333332 0.6824183333333332
0.2799316666666667 0.7200683333333332 0.6933033333333333
0.2934966666666666 0.7065033333333332 0.7124983333333332
0.2680616666666666 0.7319383333333334 0.7425033333333332
0.2385016666666666 0.7614983333333333 0.7417733333333332
0.2166316666666667 0.7833683333333332 0.7306483333333332
0.0994066666666667 0.5905833333333332 0.8095883333333331
0.2312516666666666 0.6564333333333333 0.7797933333333332
0.1412416666666667 0.6369133333333333 0.7991733333333332
0.1904516666666667 0.6613583333333333 0.7908733333333331
0.2036216666666667 0.9072433333333333 0.7107283333333332
0.2297066666666666 0.9594133333333332 0.6813333333333332
0.2582866666666667 0.5165733333333332 0.6824183333333332
0.2799316666666667 0.5598633333333334 0.6933033333333333
0.2934966666666666 0.5869933333333331 0.7124983333333332
0.2680616666666666 0.5361233333333333 0.7425033333333332
0.2385016666666666 0.9770033333333331 0.7417733333333332
0.2166316666666667 0.9332633333333331 0.7306483333333332
0.4094166666666667 0.5088233333333334 0.8095883333333331
0.3435666666666667 0.5748183333333333 0.7797933333333332
0.3630866666666666 0.5043283333333333 0.7991733333333332
0.3386416666666666 0.5290933333333333 0.7908733333333331
0.0927566666666666 0.7963783333333332 0.7107283333333332
0.0405866666666666 0.7702933333333332 0.6813333333333332
0.4834266666666667 0.7417133333333332 0.6824183333333332
0.4401366666666666 0.7200683333333332 0.6933033333333333
0.4130066666666665 0.7065033333333332 0.7124983333333332
0.4638766666666666 0.7319383333333334 0.7425033333333332
0.0229966666666666 0.7614983333333333 0.7417733333333332
0.0667366666666666 0.7833683333333332 0.7306483333333332
0.4911766666666665 0.9005933333333332 0.8095883333333331
0.4251816666666666 0.7687483333333333 0.7797933333333332
0.4956716666666666 0.8587583333333333 0.7991733333333332
0.4709066666666666 0.8095483333333332 0.7908733333333331
0.4094166666666665 0.9005933333333332 0.8095883333333331
0.3435666666666667 0.7687483333333333 0.7797933333333332
0.3630866666666667 0.8587583333333333 0.7991733333333332
0.3386416666666666 0.8095483333333332 0.7908733333333331
0.0994066666666667 0.5088233333333334 0.8095883333333331
0.2312516666666667 0.5748183333333333 0.7797933333333332
0.1412416666666667 0.5043283333333333 0.7991733333333332
0.1904516666666667 0.5290933333333333 0.7908733333333331
0.4911766666666665 0.5905833333333332 0.8095883333333331
0.4251816666666666 0.6564333333333333 0.7797933333333332
0.4956716666666666 0.6369133333333333 0.7991733333333332
0.4709066666666667 0.6613583333333333 0.7908733333333331
0.2339266666666666 0.5760833333333333 0.8570783333333333
0.1020816666666667 0.5102333333333333 0.8868733333333332
0.1920916666666667 0.5297533333333333 0.8674933333333332
0.1428816666666666 0.5053083333333332 0.8757933333333332
0.4239166666666666 0.6578433333333333 0.8570783333333333
0.4897666666666666 0.5918483333333333 0.8868733333333332
0.4702466666666666 0.6623383333333333 0.8674933333333332
0.4946916666666666 0.6375733333333333 0.8757933333333332
0.3421566666666666 0.7660733333333333 0.8570783333333333
0.4081516666666667 0.8979183333333335 0.8868733333333332
0.3376616666666666 0.8079083333333332 0.8674933333333332
0.3624266666666667 0.8571183333333333 0.8757933333333332
0.9630449999999998 0.0369550000000000 0.1226050000000000
0.9369599999999999 0.0630400000000000 0.1520000000000000
0.9083799999999999 0.0916200000000000 0.1509150000000000
0.8867349999999999 0.1132650000000000 0.1400300000000000
0.8731699999999998 0.1268300000000000 0.1208350000000000
0.8986049999999998 0.1013950000000000 0.0908300000000000
0.9281649999999998 0.0718350000000000 0.0915600000000000
0.9500349999999999 0.0499650000000000 0.1026850000000000
0.7572499999999999 0.4327400000000000 0.0237450000000000
0.8230999999999998 0.0645850000000000 0.0535400000000000
0.8035799999999998 0.4745750000000000 0.0341600000000000
0.8280249999999998 0.0237850000000000 0.0424600000000000
0.9630449999999997 0.4260899999999999 0.1226050000000000
0.9369599999999999 0.3739200000000001 0.1520000000000000
0.9083799999999997 0.3167600000000000 0.1509150000000000
0.8867349999999999 0.2734699999999999 0.1400300000000000
0.8731699999999999 0.2463400000000000 0.1208350000000000
0.8986049999999999 0.2972100000000000 0.0908300000000000
0.9281649999999999 0.3563300000000000 0.0915600000000000
0.9500349999999997 0.4000699999999999 0.1026850000000000
0.5672599999999999 0.3245100000000000 0.0237450000000000
0.9354149999999998 0.2585150000000000 0.0535400000000000
0.5254249999999999 0.3290050000000000 0.0341600000000000
0.9762149999999999 0.3042400000000000 0.0424600000000000
0.5739099999999999 0.0369550000000000 0.1226050000000000
0.6260799999999999 0.0630400000000000 0.1520000000000000
0.6832399999999998 0.0916200000000000 0.1509150000000000
0.7265299999999999 0.1132650000000000 0.1400300000000000
0.7536599999999999 0.1268300000000000 0.1208350000000000
0.7027899999999999 0.1013950000000000 0.0908300000000000
0.6436699999999999 0.0718350000000000 0.0915600000000000
0.5999299999999999 0.0499650000000000 0.1026850000000000
0.6754899999999999 0.2427500000000000 0.0237450000000000
0.7414849999999998 0.1769000000000000 0.0535400000000000
0.6709949999999999 0.1964200000000000 0.0341600000000000
0.6957599999999998 0.1719750000000000 0.0424600000000000
0.5369549999999998 0.4630449999999999 0.3773949999999999
0.5630399999999999 0.4369600000000000 0.3479999999999999
0.5916199999999999 0.4083800000000000 0.3490849999999999
0.6132649999999998 0.3867349999999999 0.3599700000000000
0.6268299999999999 0.3731699999999999 0.3791649999999999
0.6013949999999999 0.3986050000000000 0.4091700000000000
0.5718349999999999 0.4281650000000000 0.4084399999999999
0.5499650000000000 0.4500350000000000 0.3973149999999999
0.9327399999999998 0.2572500000000000 0.4762549999999999
0.5645850000000000 0.3231000000000000 0.4464599999999999
0.9745749999999996 0.3035800000000000 0.4658399999999999
0.5237849999999998 0.3280250000000000 0.4575399999999999
0.5369550000000000 0.0739100000000000 0.3773949999999999
0.5630399999999999 0.1260800000000000 0.3479999999999999
0.5916199999999999 0.1832399999999999 0.3490849999999999
0.6132649999999998 0.2265300000000000 0.3599700000000000
0.6268300000000000 0.2536600000000000 0.3791649999999999
0.6013949999999999 0.2027900000000001 0.4091700000000000
0.5718349999999999 0.1436700000000000 0.4084399999999999
0.5499649999999999 0.0999299999999999 0.3973149999999999
0.7427499999999998 0.1754900000000000 0.4762549999999999
0.6768999999999999 0.2414850000000000 0.4464599999999999
0.6964200000000000 0.1709950000000000 0.4658399999999999
0.6719749999999999 0.1957600000000000 0.4575399999999999
0.9260899999999997 0.4630449999999999 0.3773949999999999
0.8739199999999998 0.4369600000000000 0.3479999999999999
0.8167599999999999 0.4083800000000000 0.3490849999999999
0.7734699999999999 0.3867349999999999 0.3599700000000000
0.7463399999999999 0.3731699999999999 0.3791649999999999
0.7972099999999999 0.3986050000000000 0.4091700000000000
0.8563299999999999 0.4281650000000000 0.4084399999999999
0.9000699999999998 0.4500350000000000 0.3973149999999999
0.8245099999999999 0.0672600000000000 0.4762549999999999
0.7585149999999999 0.4354150000000001 0.4464599999999999
0.8290049999999998 0.0254250000000000 0.4658399999999999
0.8042400000000001 0.4762150000000000 0.4575399999999999
0.7427499999999999 0.0672600000000000 0.4762549999999999
0.6769000000000001 0.4354150000000001 0.4464599999999999
0.6964199999999998 0.0254250000000000 0.4658399999999999
0.6719750000000000 0.4762150000000000 0.4575399999999999
0.9327399999999998 0.1754900000000000 0.4762549999999999
0.5645849999999999 0.2414850000000000 0.4464599999999999
0.9745749999999997 0.1709950000000000 0.4658399999999999
0.5237849999999998 0.1957600000000000 0.4575399999999999
0.8245099999999997 0.2572500000000000 0.4762549999999999
0.7585149999999999 0.3231000000000000 0.4464599999999999
0.8290049999999999 0.3035800000000000 0.4658399999999999
0.8042400000000000 0.3280250000000000 0.4575399999999999
0.5672599999999999 0.2427500000000000 0.0237450000000000
0.9354149999999998 0.1769000000000000 0.0535400000000000
0.5254249999999999 0.1964200000000000 0.0341600000000000
0.9762149999999998 0.1719750000000000 0.0424600000000000
0.7572499999999999 0.3245100000000000 0.0237450000000000
0.8230999999999998 0.2585150000000000 0.0535400000000000
0.8035799999999998 0.3290050000000000 0.0341600000000000
0.8280249999999999 0.3042400000000000 0.0424600000000000
0.6754899999999999 0.4327400000000000 0.0237450000000000
0.7414849999999998 0.0645850000000000 0.0535400000000000
0.6709949999999999 0.4745750000000000 0.0341600000000000
0.6957599999999998 0.0237850000000000 0.0424600000000000
0.7963783333333331 0.2036216666666666 0.2892716666666666
0.7702933333333331 0.2297066666666667 0.3186666666666666
0.7417133333333332 0.2582866666666666 0.3175816666666666
0.7200683333333332 0.2799316666666667 0.3066966666666666
0.7065033333333332 0.2934966666666666 0.2875016666666666
0.7319383333333332 0.2680616666666667 0.2574966666666666
0.7614983333333333 0.2385016666666666 0.2582266666666666
0.7833683333333331 0.2166316666666667 0.2693516666666666
0.5905833333333332 0.0994066666666666 0.1904116666666666
0.6564333333333331 0.2312516666666666 0.2202066666666666
0.6369133333333331 0.1412416666666667 0.2008266666666666
0.6613583333333330 0.1904516666666666 0.2091266666666666
0.7963783333333332 0.0927566666666666 0.2892716666666666
0.7702933333333331 0.0405866666666667 0.3186666666666666
0.7417133333333332 0.4834266666666666 0.3175816666666666
0.7200683333333332 0.4401366666666665 0.3066966666666666
0.7065033333333332 0.4130066666666666 0.2875016666666666
0.7319383333333331 0.4638766666666666 0.2574966666666666
0.7614983333333332 0.0229966666666667 0.2582266666666666
0.7833683333333332 0.0667366666666667 0.2693516666666666
0.9005933333333332 0.4911766666666666 0.1904116666666666
0.7687483333333331 0.4251816666666666 0.2202066666666666
0.8587583333333331 0.4956716666666666 0.2008266666666666
0.8095483333333331 0.4709066666666667 0.2091266666666666
0.9072433333333332 0.2036216666666667 0.2892716666666666
0.9594133333333329 0.2297066666666666 0.3186666666666666
0.5165733333333333 0.2582866666666666 0.3175816666666666
0.5598633333333333 0.2799316666666667 0.3066966666666666
0.5869933333333331 0.2934966666666666 0.2875016666666666
0.5361233333333332 0.2680616666666667 0.2574966666666666
0.9770033333333330 0.2385016666666666 0.2582266666666666
0.9332633333333331 0.2166316666666667 0.2693516666666666
0.5088233333333334 0.4094166666666667 0.1904116666666666
0.5748183333333331 0.3435666666666666 0.2202066666666666
0.5043283333333332 0.3630866666666666 0.2008266666666666
0.5290933333333332 0.3386416666666666 0.2091266666666666
0.8702883333333331 0.1297116666666667 0.0440616666666666
0.8963733333333330 0.1036266666666666 0.0146666666666667
0.9249533333333331 0.0750466666666667 0.0157516666666667
0.9465983333333331 0.0534016666666667 0.0266366666666667
0.9601633333333331 0.0398366666666666 0.0458316666666667
0.9347283333333333 0.0652716666666666 0.0758366666666666
0.9051683333333332 0.0948316666666666 0.0751066666666667
0.8832983333333331 0.1167016666666667 0.0639816666666666
0.7660733333333333 0.4239166666666666 0.1429216666666666
0.8979183333333332 0.4897666666666666 0.1131266666666666
0.8079083333333332 0.4702466666666666 0.1325066666666666
0.8571183333333332 0.4946916666666665 0.1242066666666666
0.8702883333333332 0.2405766666666667 0.0440616666666666
0.8963733333333330 0.2927466666666666 0.0146666666666667
0.9249533333333332 0.3499066666666666 0.0157516666666667
0.9465983333333332 0.3931966666666666 0.0266366666666667
0.9601633333333330 0.4203266666666666 0.0458316666666667
0.9347283333333332 0.3694566666666667 0.0758366666666666
0.9051683333333332 0.3103366666666666 0.0751066666666667
0.8832983333333332 0.2665966666666665 0.0639816666666666
0.5760833333333333 0.3421566666666666 0.1429216666666666
0.5102333333333333 0.4081516666666666 0.1131266666666666
0.5297533333333333 0.3376616666666666 0.1325066666666666
0.5053083333333332 0.3624266666666666 0.1242066666666666
0.7594233333333332 0.1297116666666667 0.0440616666666666
0.7072533333333332 0.1036266666666666 0.0146666666666667
0.6500933333333333 0.0750466666666667 0.0157516666666667
0.6068033333333333 0.0534016666666667 0.0266366666666667
0.5796733333333332 0.0398366666666667 0.0458316666666667
0.6305433333333331 0.0652716666666666 0.0758366666666666
0.6896633333333332 0.0948316666666666 0.0751066666666667
0.7334033333333333 0.1167016666666666 0.0639816666666666
0.6578433333333332 0.2339266666666666 0.1429216666666666
0.5918483333333332 0.1020816666666667 0.1131266666666666
0.6623383333333331 0.1920916666666667 0.1325066666666666
0.6375733333333332 0.1428816666666667 0.1242066666666666
0.5760833333333333 0.2339266666666666 0.1429216666666666
0.5102333333333332 0.1020816666666667 0.1131266666666666
0.5297533333333332 0.1920916666666667 0.1325066666666666
0.5053083333333332 0.1428816666666667 0.1242066666666666
0.7660733333333333 0.3421566666666666 0.1429216666666666
0.8979183333333333 0.4081516666666666 0.1131266666666666
0.8079083333333332 0.3376616666666666 0.1325066666666666
0.8571183333333332 0.3624266666666666 0.1242066666666666
0.6578433333333332 0.4239166666666666 0.1429216666666666
0.5918483333333332 0.4897666666666666 0.1131266666666666
0.6623383333333331 0.4702466666666666 0.1325066666666666
0.6375733333333332 0.4946916666666665 0.1242066666666666
0.9005933333333332 0.4094166666666667 0.1904116666666666
0.7687483333333331 0.3435666666666666 0.2202066666666666
0.8587583333333331 0.3630866666666666 0.2008266666666666
0.8095483333333331 0.3386416666666666 0.2091266666666666
0.5905833333333332 0.4911766666666666 0.1904116666666666
0.6564333333333331 0.4251816666666666 0.2202066666666666
0.6369133333333332 0.4956716666666666 0.2008266666666666
0.6613583333333332 0.4709066666666667 0.2091266666666666
0.5088233333333334 0.0994066666666666 0.1904116666666666
0.5748183333333332 0.2312516666666666 0.2202066666666666
0.5043283333333330 0.1412416666666667 0.2008266666666666
0.5290933333333331 0.1904516666666666 0.2091266666666666
0.6297116666666667 0.3702883333333333 0.4559383333333333
0.6036266666666665 0.3963733333333333 0.4853333333333332
0.5750466666666667 0.4249533333333333 0.4842483333333332
0.5534016666666666 0.4465983333333333 0.4733633333333332
0.5398366666666665 0.4601633333333333 0.4541683333333332
0.5652716666666665 0.4347283333333333 0.4241633333333333
0.5948316666666665 0.4051683333333332 0.4248933333333333
0.6167016666666666 0.3832983333333332 0.4360183333333332
0.9239166666666663 0.2660733333333333 0.3570783333333332
0.9897666666666664 0.3979183333333333 0.3868733333333332
0.9702466666666665 0.3079083333333333 0.3674933333333333
0.9946916666666665 0.3571183333333333 0.3757933333333332
0.6297116666666666 0.2594233333333333 0.4559383333333333
0.6036266666666665 0.2072533333333333 0.4853333333333332
0.5750466666666666 0.1500933333333334 0.4842483333333332
0.5534016666666666 0.1068033333333333 0.4733633333333332
0.5398366666666665 0.0796733333333333 0.4541683333333332
0.5652716666666665 0.1305433333333332 0.4241633333333333
0.5948316666666665 0.1896633333333333 0.4248933333333333
0.6167016666666667 0.2334033333333334 0.4360183333333332
0.7339266666666664 0.1578433333333333 0.3570783333333332
0.6020816666666665 0.0918483333333333 0.3868733333333332
0.6920916666666665 0.1623383333333333 0.3674933333333333
0.6428816666666666 0.1375733333333333 0.3757933333333332
0.7405766666666665 0.3702883333333333 0.4559383333333333
0.7927466666666665 0.3963733333333333 0.4853333333333332
0.8499066666666665 0.4249533333333333 0.4842483333333332
0.8931966666666664 0.4465983333333333 0.4733633333333332
0.9203266666666664 0.4601633333333333 0.4541683333333332
0.8694566666666664 0.4347283333333333 0.4241633333333333
0.8103366666666665 0.4051683333333332 0.4248933333333333
0.7665966666666665 0.3832983333333332 0.4360183333333332
0.8421566666666664 0.0760833333333334 0.3570783333333332
0.9081516666666666 0.0102333333333333 0.3868733333333332
0.8376616666666664 0.0297533333333333 0.3674933333333333
0.8624266666666665 0.0053083333333333 0.3757933333333332
0.7036216666666664 0.2963783333333332 0.2107283333333333
0.7297066666666666 0.2702933333333332 0.1813333333333333
0.7582866666666666 0.2417133333333333 0.1824183333333333
0.7799316666666666 0.2200683333333333 0.1933033333333333
0.7934966666666664 0.2065033333333332 0.2124983333333333
0.7680616666666665 0.2319383333333334 0.2425033333333333
0.7385016666666664 0.2614983333333334 0.2417733333333333
0.7166316666666664 0.2833683333333333 0.2306483333333333
0.5994066666666665 0.0905833333333332 0.3095883333333332
0.7312516666666664 0.1564333333333333 0.2797933333333333
0.6412416666666666 0.1369133333333333 0.2991733333333332
0.6904516666666666 0.1613583333333333 0.2908733333333333
0.7036216666666665 0.4072433333333333 0.2107283333333333
0.7297066666666666 0.4594133333333333 0.1813333333333333
0.7582866666666666 0.0165733333333333 0.1824183333333333
0.7799316666666666 0.0598633333333333 0.1933033333333333
0.7934966666666664 0.0869933333333333 0.2124983333333333
0.7680616666666664 0.0361233333333333 0.2425033333333333
0.7385016666666664 0.4770033333333333 0.2417733333333333
0.7166316666666664 0.4332633333333333 0.2306483333333333
0.9094166666666664 0.0088233333333334 0.3095883333333332
0.8435666666666665 0.0748183333333333 0.2797933333333333
0.8630866666666666 0.0043283333333333 0.2991733333333332
0.8386416666666664 0.0290933333333333 0.2908733333333333
0.5927566666666665 0.2963783333333332 0.2107283333333333
0.5405866666666665 0.2702933333333333 0.1813333333333333
0.9834266666666666 0.2417133333333333 0.1824183333333333
0.9401366666666665 0.2200683333333333 0.1933033333333333
0.9130066666666663 0.2065033333333333 0.2124983333333333
0.9638766666666663 0.2319383333333333 0.2425033333333333
0.5229966666666666 0.2614983333333333 0.2417733333333333
0.5667366666666666 0.2833683333333333 0.2306483333333333
0.9911766666666664 0.4005933333333332 0.3095883333333332
0.9251816666666665 0.2687483333333333 0.2797933333333333
0.9956716666666663 0.3587583333333332 0.2991733333333332
0.9709066666666665 0.3095483333333333 0.2908733333333333
0.9094166666666665 0.4005933333333332 0.3095883333333332
0.8435666666666666 0.2687483333333333 0.2797933333333333
0.8630866666666664 0.3587583333333332 0.2991733333333332
0.8386416666666664 0.3095483333333333 0.2908733333333333
0.5994066666666665 0.0088233333333334 0.3095883333333332
0.7312516666666664 0.0748183333333333 0.2797933333333333
0.6412416666666666 0.0043283333333333 0.2991733333333332
0.6904516666666665 0.0290933333333333 0.2908733333333333
0.9911766666666664 0.0905833333333332 0.3095883333333332
0.9251816666666663 0.1564333333333333 0.2797933333333333
0.9956716666666664 0.1369133333333333 0.2991733333333332
0.9709066666666666 0.1613583333333333 0.2908733333333333
0.7339266666666664 0.0760833333333334 0.3570783333333332
0.6020816666666665 0.0102333333333333 0.3868733333333332
0.6920916666666665 0.0297533333333333 0.3674933333333333
0.6428816666666666 0.0053083333333333 0.3757933333333332
0.9239166666666664 0.1578433333333333 0.3570783333333332
0.9897666666666665 0.0918483333333333 0.3868733333333332
0.9702466666666665 0.1623383333333333 0.3674933333333333
0.9946916666666664 0.1375733333333333 0.3757933333333332
0.8421566666666663 0.2660733333333333 0.3570783333333332
0.9081516666666665 0.3979183333333333 0.3868733333333332
0.8376616666666665 0.3079083333333333 0.3674933333333333
0.8624266666666665 0.3571183333333333 0.3757933333333332
0.9630449999999998 0.0369550000000000 0.6226049999999999
0.9369599999999999 0.0630400000000000 0.6519999999999999
0.9083799999999999 0.0916200000000000 0.6509149999999999
0.8867349999999999 0.1132650000000000 0.6400299999999999
0.8731699999999998 0.1268300000000000 0.6208349999999999
0.8986049999999999 0.1013950000000000 0.5908299999999999
0.9281649999999999 0.0718350000000000 0.5915599999999999
0.9500349999999999 0.0499650000000000 0.6026849999999999
0.7572500000000000 0.4327400000000000 0.5237449999999999
0.8230999999999999 0.0645850000000000 0.5535399999999999
0.8035799999999998 0.4745750000000000 0.5341599999999999
0.8280249999999999 0.0237850000000000 0.5424599999999998
0.9630449999999997 0.4260900000000000 0.6226049999999999
0.9369599999999999 0.3739200000000000 0.6519999999999999
0.9083799999999997 0.3167600000000000 0.6509149999999999
0.8867349999999998 0.2734700000000000 0.6400299999999999
0.8731699999999999 0.2463400000000000 0.6208349999999999
0.8986050000000000 0.2972099999999999 0.5908299999999999
0.9281650000000000 0.3563300000000000 0.5915599999999999
0.9500349999999997 0.4000700000000000 0.6026849999999999
0.5672600000000000 0.3245100000000000 0.5237449999999999
0.9354149999999999 0.2585150000000000 0.5535399999999999
0.5254250000000000 0.3290050000000000 0.5341599999999999
0.9762150000000001 0.3042400000000000 0.5424599999999998
0.5739099999999999 0.0369550000000000 0.6226049999999999
0.6260799999999997 0.0630400000000000 0.6519999999999999
0.6832399999999998 0.0916200000000000 0.6509149999999999
0.7265299999999999 0.1132650000000000 0.6400299999999999
0.7536599999999999 0.1268300000000000 0.6208349999999999
0.7027900000000000 0.1013950000000000 0.5908299999999999
0.6436700000000000 0.0718350000000000 0.5915599999999999
0.5999299999999997 0.0499650000000000 0.6026849999999999
0.6754899999999999 0.2427500000000000 0.5237449999999999
0.7414849999999999 0.1769000000000000 0.5535399999999999
0.6709950000000000 0.1964200000000000 0.5341599999999999
0.6957599999999998 0.1719750000000000 0.5424599999999998
0.5369549999999998 0.4630450000000000 0.8773949999999997
0.5630400000000000 0.4369600000000000 0.8479999999999999
0.5916200000000000 0.4083800000000000 0.8490849999999998
0.6132649999999999 0.3867350000000000 0.8599699999999998
0.6268299999999999 0.3731700000000000 0.8791649999999999
0.6013950000000000 0.3986050000000000 0.9091699999999999
0.5718350000000000 0.4281650000000000 0.9084399999999998
0.5499650000000000 0.4500350000000000 0.8973149999999999
0.9327399999999999 0.2572500000000000 0.9762549999999999
0.5645850000000000 0.3230999999999999 0.9464600000000000
0.9745749999999999 0.3035800000000000 0.9658399999999998
0.5237849999999999 0.3280250000000000 0.9575399999999999
0.5369550000000001 0.0739100000000000 0.8773949999999997
0.5630399999999999 0.1260799999999999 0.8479999999999999
0.5916199999999999 0.1832399999999999 0.8490849999999998
0.6132649999999999 0.2265300000000000 0.8599699999999998
0.6268300000000000 0.2536600000000000 0.8791649999999999
0.6013949999999999 0.2027900000000000 0.9091699999999999
0.5718349999999999 0.1436700000000000 0.9084399999999998
0.5499650000000000 0.0999299999999999 0.8973149999999999
0.7427499999999999 0.1754900000000000 0.9762549999999999
0.6769000000000001 0.2414849999999999 0.9464600000000000
0.6964200000000000 0.1709950000000000 0.9658399999999998
0.6719750000000000 0.1957600000000000 0.9575399999999999
0.9260899999999999 0.4630450000000000 0.8773949999999997
0.8739199999999999 0.4369600000000000 0.8479999999999999
0.8167599999999999 0.4083800000000000 0.8490849999999998
0.7734699999999999 0.3867350000000000 0.8599699999999998
0.7463399999999999 0.3731700000000000 0.8791649999999999
0.7972099999999999 0.3986050000000000 0.9091699999999999
0.8563299999999999 0.4281650000000000 0.9084399999999998
0.9000699999999999 0.4500350000000000 0.8973149999999999
0.8245100000000000 0.0672600000000000 0.9762549999999999
0.7585149999999999 0.4354150000000000 0.9464600000000000
0.8290049999999999 0.0254250000000000 0.9658399999999998
0.8042400000000001 0.4762149999999999 0.9575399999999999
0.7427500000000000 0.0672600000000000 0.9762549999999999
0.6769000000000001 0.4354150000000000 0.9464600000000000
0.6964199999999999 0.0254250000000000 0.9658399999999998
0.6719750000000000 0.4762149999999999 0.9575399999999999
0.9327399999999999 0.1754900000000000 0.9762549999999999
0.5645850000000000 0.2414849999999999 0.9464600000000000
0.9745749999999999 0.1709950000000000 0.9658399999999998
0.5237849999999998 0.1957600000000000 0.9575399999999999
0.8245099999999999 0.2572500000000000 0.9762549999999999
0.7585150000000001 0.3230999999999999 0.9464600000000000
0.8290050000000000 0.3035800000000000 0.9658399999999998
0.8042400000000000 0.3280250000000000 0.9575399999999999
0.5672600000000000 0.2427500000000000 0.5237449999999999
0.9354149999999999 0.1769000000000000 0.5535399999999999
0.5254250000000000 0.1964200000000000 0.5341599999999999
0.9762149999999999 0.1719750000000000 0.5424599999999998
0.7572500000000000 0.3245100000000000 0.5237449999999999
0.8230999999999999 0.2585150000000000 0.5535399999999999
0.8035800000000000 0.3290050000000000 0.5341599999999999
0.8280250000000000 0.3042400000000000 0.5424599999999998
0.6754900000000000 0.4327400000000000 0.5237449999999999
0.7414849999999999 0.0645850000000000 0.5535399999999999
0.6709949999999999 0.4745750000000000 0.5341599999999999
0.6957599999999998 0.0237850000000000 0.5424599999999998
0.7963783333333332 0.2036216666666666 0.7892716666666665
0.7702933333333332 0.2297066666666667 0.8186666666666664
0.7417133333333332 0.2582866666666667 0.8175816666666665
0.7200683333333332 0.2799316666666667 0.8066966666666665
0.7065033333333332 0.2934966666666666 0.7875016666666665
0.7319383333333332 0.2680616666666666 0.7574966666666665
0.7614983333333332 0.2385016666666666 0.7582266666666665
0.7833683333333332 0.2166316666666666 0.7693516666666665
0.5905833333333331 0.0994066666666666 0.6904116666666665
0.6564333333333332 0.2312516666666666 0.7202066666666664
0.6369133333333331 0.1412416666666667 0.7008266666666666
0.6613583333333332 0.1904516666666667 0.7091266666666666
0.7963783333333333 0.0927566666666666 0.7892716666666665
0.7702933333333332 0.0405866666666667 0.8186666666666664
0.7417133333333333 0.4834266666666667 0.8175816666666665
0.7200683333333332 0.4401366666666666 0.8066966666666665
0.7065033333333332 0.4130066666666666 0.7875016666666665
0.7319383333333331 0.4638766666666666 0.7574966666666665
0.7614983333333333 0.0229966666666667 0.7582266666666665
0.7833683333333333 0.0667366666666667 0.7693516666666665
0.9005933333333332 0.4911766666666665 0.6904116666666665
0.7687483333333331 0.4251816666666666 0.7202066666666664
0.8587583333333331 0.4956716666666665 0.7008266666666666
0.8095483333333331 0.4709066666666666 0.7091266666666666
0.9072433333333333 0.2036216666666667 0.7892716666666665
0.9594133333333330 0.2297066666666666 0.8186666666666664
0.5165733333333333 0.2582866666666667 0.8175816666666665
0.5598633333333334 0.2799316666666667 0.8066966666666665
0.5869933333333331 0.2934966666666666 0.7875016666666665
0.5361233333333332 0.2680616666666666 0.7574966666666665
0.9770033333333331 0.2385016666666666 0.7582266666666665
0.9332633333333332 0.2166316666666666 0.7693516666666665
0.5088233333333333 0.4094166666666667 0.6904116666666665
0.5748183333333332 0.3435666666666666 0.7202066666666664
0.5043283333333332 0.3630866666666666 0.7008266666666666
0.5290933333333332 0.3386416666666666 0.7091266666666666
0.8702883333333332 0.1297116666666667 0.5440616666666666
0.8963733333333331 0.1036266666666667 0.5146666666666665
0.9249533333333332 0.0750466666666667 0.5157516666666665
0.9465983333333332 0.0534016666666667 0.5266366666666665
0.9601633333333333 0.0398366666666666 0.5458316666666666
0.9347283333333334 0.0652716666666666 0.5758366666666667
0.9051683333333334 0.0948316666666666 0.5751066666666665
0.8832983333333332 0.1167016666666667 0.5639816666666665
0.7660733333333332 0.4239166666666666 0.6429216666666665
0.8979183333333332 0.4897666666666667 0.6131266666666665
0.8079083333333331 0.4702466666666667 0.6325066666666666
0.8571183333333331 0.4946916666666666 0.6242066666666666
0.8702883333333333 0.2405766666666667 0.5440616666666666
0.8963733333333331 0.2927466666666665 0.5146666666666665
0.9249533333333333 0.3499066666666665 0.5157516666666665
0.9465983333333333 0.3931966666666666 0.5266366666666665
0.9601633333333331 0.4203266666666666 0.5458316666666666
0.9347283333333333 0.3694566666666666 0.5758366666666667
0.9051683333333332 0.3103366666666666 0.5751066666666665
0.8832983333333333 0.2665966666666665 0.5639816666666665
0.5760833333333332 0.3421566666666667 0.6429216666666665
0.5102333333333332 0.4081516666666667 0.6131266666666665
0.5297533333333332 0.3376616666666666 0.6325066666666666
0.5053083333333331 0.3624266666666667 0.6242066666666666
0.7594233333333333 0.1297116666666667 0.5440616666666666
0.7072533333333333 0.1036266666666667 0.5146666666666665
0.6500933333333333 0.0750466666666667 0.5157516666666665
0.6068033333333333 0.0534016666666667 0.5266366666666665
0.5796733333333333 0.0398366666666667 0.5458316666666666
0.6305433333333332 0.0652716666666667 0.5758366666666667
0.6896633333333332 0.0948316666666666 0.5751066666666665
0.7334033333333334 0.1167016666666667 0.5639816666666665
0.6578433333333331 0.2339266666666666 0.6429216666666665
0.5918483333333332 0.1020816666666666 0.6131266666666665
0.6623383333333331 0.1920916666666667 0.6325066666666666
0.6375733333333332 0.1428816666666666 0.6242066666666666
0.5760833333333332 0.2339266666666666 0.6429216666666665
0.5102333333333331 0.1020816666666666 0.6131266666666665
0.5297533333333331 0.1920916666666667 0.6325066666666666
0.5053083333333331 0.1428816666666666 0.6242066666666666
0.7660733333333332 0.3421566666666667 0.6429216666666665
0.8979183333333333 0.4081516666666667 0.6131266666666665
0.8079083333333331 0.3376616666666666 0.6325066666666666
0.8571183333333332 0.3624266666666667 0.6242066666666666
0.6578433333333332 0.4239166666666666 0.6429216666666665
0.5918483333333332 0.4897666666666667 0.6131266666666665
0.6623383333333330 0.4702466666666667 0.6325066666666666
0.6375733333333331 0.4946916666666666 0.6242066666666666
0.9005933333333332 0.4094166666666667 0.6904116666666665
0.7687483333333331 0.3435666666666666 0.7202066666666664
0.8587583333333332 0.3630866666666666 0.7008266666666666
0.8095483333333331 0.3386416666666666 0.7091266666666666
0.5905833333333330 0.4911766666666665 0.6904116666666665
0.6564333333333332 0.4251816666666666 0.7202066666666664
0.6369133333333332 0.4956716666666665 0.7008266666666666
0.6613583333333332 0.4709066666666666 0.7091266666666666
0.5088233333333333 0.0994066666666666 0.6904116666666665
0.5748183333333332 0.2312516666666666 0.7202066666666664
0.5043283333333330 0.1412416666666667 0.7008266666666666
0.5290933333333331 0.1904516666666667 0.7091266666666666
0.6297116666666667 0.3702883333333333 0.9559383333333331
0.6036266666666665 0.3963733333333332 0.9853333333333332
0.5750466666666667 0.4249533333333332 0.9842483333333331
0.5534016666666666 0.4465983333333333 0.9733633333333331
0.5398366666666666 0.4601633333333332 0.9541683333333331
0.5652716666666666 0.4347283333333333 0.9241633333333332
0.5948316666666666 0.4051683333333332 0.9248933333333331
0.6167016666666667 0.3832983333333332 0.9360183333333331
0.9239166666666664 0.2660733333333334 0.8570783333333333
0.9897666666666665 0.3979183333333333 0.8868733333333332
0.9702466666666666 0.3079083333333333 0.8674933333333332
0.9946916666666666 0.3571183333333333 0.8757933333333332
0.6297116666666667 0.2594233333333333 0.9559383333333331
0.6036266666666665 0.2072533333333333 0.9853333333333332
0.5750466666666666 0.1500933333333334 0.9842483333333331
0.5534016666666667 0.1068033333333334 0.9733633333333331
0.5398366666666666 0.0796733333333333 0.9541683333333331
0.5652716666666665 0.1305433333333333 0.9241633333333332
0.5948316666666665 0.1896633333333333 0.9248933333333331
0.6167016666666667 0.2334033333333334 0.9360183333333331
0.7339266666666665 0.1578433333333333 0.8570783333333333
0.6020816666666665 0.0918483333333333 0.8868733333333332
0.6920916666666665 0.1623383333333333 0.8674933333333332
0.6428816666666666 0.1375733333333333 0.8757933333333332
0.7405766666666665 0.3702883333333333 0.9559383333333331
0.7927466666666666 0.3963733333333332 0.9853333333333332
0.8499066666666665 0.4249533333333332 0.9842483333333331
0.8931966666666665 0.4465983333333333 0.9733633333333331
0.9203266666666665 0.4601633333333332 0.9541683333333331
0.8694566666666665 0.4347283333333333 0.9241633333333332
0.8103366666666665 0.4051683333333332 0.9248933333333331
0.7665966666666665 0.3832983333333332 0.9360183333333331
0.8421566666666666 0.0760833333333333 0.8570783333333333
0.9081516666666667 0.0102333333333333 0.8868733333333332
0.8376616666666665 0.0297533333333333 0.8674933333333332
0.8624266666666666 0.0053083333333333 0.8757933333333332
0.7036216666666664 0.2963783333333332 0.7107283333333332
0.7297066666666665 0.2702933333333333 0.6813333333333332
0.7582866666666666 0.2417133333333333 0.6824183333333332
0.7799316666666666 0.2200683333333333 0.6933033333333333
0.7934966666666665 0.2065033333333332 0.7124983333333332
0.7680616666666666 0.2319383333333333 0.7425033333333332
0.7385016666666664 0.2614983333333333 0.7417733333333332
0.7166316666666666 0.2833683333333333 0.7306483333333332
0.5994066666666665 0.0905833333333332 0.8095883333333331
0.7312516666666665 0.1564333333333333 0.7797933333333332
0.6412416666666666 0.1369133333333333 0.7991733333333332
0.6904516666666666 0.1613583333333333 0.7908733333333331
0.7036216666666665 0.4072433333333333 0.7107283333333332
0.7297066666666665 0.4594133333333333 0.6813333333333332
0.7582866666666666 0.0165733333333333 0.6824183333333332
0.7799316666666666 0.0598633333333333 0.6933033333333333
0.7934966666666664 0.0869933333333333 0.7124983333333332
0.7680616666666665 0.0361233333333333 0.7425033333333332
0.7385016666666664 0.4770033333333332 0.7417733333333332
0.7166316666666664 0.4332633333333332 0.7306483333333332
0.9094166666666665 0.0088233333333334 0.8095883333333331
0.8435666666666666 0.0748183333333333 0.7797933333333332
0.8630866666666666 0.0043283333333333 0.7991733333333332
0.8386416666666665 0.0290933333333333 0.7908733333333331
0.5927566666666665 0.2963783333333332 0.7107283333333332
0.5405866666666665 0.2702933333333333 0.6813333333333332
0.9834266666666666 0.2417133333333333 0.6824183333333332
0.9401366666666665 0.2200683333333333 0.6933033333333333
0.9130066666666664 0.2065033333333333 0.7124983333333332
0.9638766666666664 0.2319383333333333 0.7425033333333332
0.5229966666666666 0.2614983333333333 0.7417733333333332
0.5667366666666666 0.2833683333333333 0.7306483333333332
0.9911766666666665 0.4005933333333333 0.8095883333333331
0.9251816666666665 0.2687483333333333 0.7797933333333332
0.9956716666666664 0.3587583333333333 0.7991733333333332
0.9709066666666666 0.3095483333333333 0.7908733333333331
0.9094166666666667 0.4005933333333333 0.8095883333333331
0.8435666666666666 0.2687483333333333 0.7797933333333332
0.8630866666666666 0.3587583333333333 0.7991733333333332
0.8386416666666665 0.3095483333333333 0.7908733333333331
0.5994066666666665 0.0088233333333334 0.8095883333333331
0.7312516666666665 0.0748183333333333 0.7797933333333332
0.6412416666666666 0.0043283333333333 0.7991733333333332
0.6904516666666666 0.0290933333333333 0.7908733333333331
0.9911766666666665 0.0905833333333332 0.8095883333333331
0.9251816666666665 0.1564333333333333 0.7797933333333332
0.9956716666666665 0.1369133333333333 0.7991733333333332
0.9709066666666666 0.1613583333333333 0.7908733333333331
0.7339266666666665 0.0760833333333333 0.8570783333333333
0.6020816666666665 0.0102333333333333 0.8868733333333332
0.6920916666666667 0.0297533333333333 0.8674933333333332
0.6428816666666666 0.0053083333333333 0.8757933333333332
0.9239166666666665 0.1578433333333333 0.8570783333333333
0.9897666666666666 0.0918483333333333 0.8868733333333332
0.9702466666666666 0.1623383333333333 0.8674933333333332
0.9946916666666664 0.1375733333333333 0.8757933333333332
0.8421566666666666 0.2660733333333334 0.8570783333333333
0.9081516666666666 0.3979183333333333 0.8868733333333332
0.8376616666666666 0.3079083333333333 0.8674933333333332
0.8624266666666666 0.3571183333333333 0.8757933333333332
0.9630449999999997 0.5369550000000000 0.1226050000000000
0.9369599999999999 0.5630400000000001 0.1520000000000000
0.9083799999999999 0.5916200000000001 0.1509150000000000
0.8867349999999999 0.6132649999999999 0.1400300000000000
0.8731699999999999 0.6268300000000000 0.1208350000000000
0.8986049999999999 0.6013949999999999 0.0908300000000000
0.9281649999999999 0.5718349999999999 0.0915600000000000
0.9500349999999999 0.5499650000000000 0.1026850000000000
0.7572499999999999 0.9327399999999999 0.0237450000000000
0.8230999999999998 0.5645849999999999 0.0535400000000000
0.8035799999999998 0.9745749999999999 0.0341600000000000
0.8280249999999999 0.5237849999999999 0.0424600000000000
0.9630449999999998 0.9260899999999999 0.1226050000000000
0.9369599999999999 0.8739199999999999 0.1520000000000000
0.9083799999999999 0.8167600000000000 0.1509150000000000
0.8867349999999999 0.7734699999999999 0.1400300000000000
0.8731699999999999 0.7463400000000000 0.1208350000000000
0.8986049999999999 0.7972100000000000 0.0908300000000000
0.9281649999999999 0.8563300000000000 0.0915600000000000
0.9500349999999999 0.9000699999999999 0.1026850000000000
0.5672599999999999 0.8245099999999999 0.0237450000000000
0.9354149999999999 0.7585149999999999 0.0535400000000000
0.5254250000000000 0.8290049999999999 0.0341600000000000
0.9762149999999999 0.8042400000000001 0.0424600000000000
0.5739099999999999 0.5369550000000000 0.1226050000000000
0.6260799999999999 0.5630400000000001 0.1520000000000000
0.6832399999999998 0.5916200000000001 0.1509150000000000
0.7265299999999999 0.6132649999999999 0.1400300000000000
0.7536599999999999 0.6268300000000000 0.1208350000000000
0.7027899999999999 0.6013949999999999 0.0908300000000000
0.6436699999999999 0.5718349999999999 0.0915600000000000
0.5999300000000000 0.5499650000000000 0.1026850000000000
0.6754900000000000 0.7427500000000000 0.0237450000000000
0.7414849999999998 0.6768999999999999 0.0535400000000000
0.6709949999999999 0.6964199999999999 0.0341600000000000
0.6957599999999998 0.6719750000000000 0.0424600000000000
0.5369550000000000 0.9630449999999999 0.3773949999999999
0.5630400000000000 0.9369600000000000 0.3479999999999999
0.5916200000000000 0.9083800000000000 0.3490849999999999
0.6132649999999998 0.8867349999999999 0.3599700000000000
0.6268299999999999 0.8731699999999999 0.3791649999999999
0.6013950000000000 0.8986050000000000 0.4091700000000000
0.5718350000000000 0.9281650000000000 0.4084399999999999
0.5499650000000000 0.9500350000000000 0.3973149999999999
0.9327400000000000 0.7572500000000001 0.4762549999999999
0.5645850000000000 0.8230999999999999 0.4464599999999999
0.9745749999999999 0.8035800000000000 0.4658399999999999
0.5237849999999999 0.8280250000000001 0.4575399999999999
0.5369550000000000 0.5739099999999999 0.3773949999999999
0.5630399999999999 0.6260799999999999 0.3479999999999999
0.5916199999999999 0.6832399999999998 0.3490849999999999
0.6132649999999998 0.7265299999999999 0.3599700000000000
0.6268299999999999 0.7536600000000000 0.3791649999999999
0.6013950000000000 0.7027900000000000 0.4091700000000000
0.5718349999999999 0.6436700000000000 0.4084399999999999
0.5499650000000000 0.5999300000000000 0.3973149999999999
0.7427500000000000 0.6754900000000000 0.4762549999999999
0.6768999999999999 0.7414849999999999 0.4464599999999999
0.6964200000000000 0.6709950000000000 0.4658399999999999
0.6719750000000000 0.6957599999999999 0.4575399999999999
0.9260900000000000 0.9630449999999999 0.3773949999999999
0.8739199999999999 0.9369600000000000 0.3479999999999999
0.8167600000000000 0.9083800000000000 0.3490849999999999
0.7734700000000000 0.8867349999999999 0.3599700000000000
0.7463399999999999 0.8731699999999999 0.3791649999999999
0.7972099999999999 0.8986050000000000 0.4091700000000000
0.8563300000000000 0.9281650000000000 0.4084399999999999
0.9000699999999999 0.9500350000000000 0.3973149999999999
0.8245099999999999 0.5672600000000000 0.4762549999999999
0.7585150000000001 0.9354150000000000 0.4464599999999999
0.8290049999999999 0.5254250000000001 0.4658399999999999
0.8042400000000001 0.9762150000000001 0.4575399999999999
0.7427499999999999 0.5672600000000000 0.4762549999999999
0.6769000000000001 0.9354150000000000 0.4464599999999999
0.6964200000000000 0.5254250000000001 0.4658399999999999
0.6719750000000000 0.9762150000000001 0.4575399999999999
0.9327399999999999 0.6754900000000000 0.4762549999999999
0.5645850000000000 0.7414849999999999 0.4464599999999999
0.9745749999999999 0.6709950000000000 0.4658399999999999
0.5237849999999999 0.6957599999999999 0.4575399999999999
0.8245100000000000 0.7572500000000001 0.4762549999999999
0.7585150000000001 0.8230999999999999 0.4464599999999999
0.8290049999999999 0.8035800000000000 0.4658399999999999
0.8042400000000000 0.8280250000000001 0.4575399999999999
0.5672600000000000 0.7427500000000000 0.0237450000000000
0.9354149999999999 0.6768999999999999 0.0535400000000000
0.5254250000000000 0.6964199999999999 0.0341600000000000
0.9762149999999999 0.6719750000000000 0.0424600000000000
0.7572499999999999 0.8245099999999999 0.0237450000000000
0.8230999999999998 0.7585149999999999 0.0535400000000000
0.8035799999999998 0.8290049999999999 0.0341600000000000
0.8280249999999999 0.8042400000000001 0.0424600000000000
0.6754899999999999 0.9327399999999999 0.0237450000000000
0.7414849999999998 0.5645849999999999 0.0535400000000000
0.6709949999999999 0.9745749999999999 0.0341600000000000
0.6957599999999998 0.5237849999999999 0.0424600000000000
0.7963783333333333 0.7036216666666665 0.2892716666666666
0.7702933333333332 0.7297066666666666 0.3186666666666666
0.7417133333333332 0.7582866666666667 0.3175816666666666
0.7200683333333333 0.7799316666666668 0.3066966666666666
0.7065033333333332 0.7934966666666665 0.2875016666666666
0.7319383333333332 0.7680616666666665 0.2574966666666666
0.7614983333333333 0.7385016666666665 0.2582266666666666
0.7833683333333332 0.7166316666666666 0.2693516666666666
0.5905833333333332 0.5994066666666668 0.1904116666666666
0.6564333333333332 0.7312516666666665 0.2202066666666666
0.6369133333333332 0.6412416666666667 0.2008266666666666
0.6613583333333332 0.6904516666666666 0.2091266666666666
0.7963783333333332 0.5927566666666665 0.2892716666666666
0.7702933333333332 0.5405866666666665 0.3186666666666666
0.7417133333333332 0.9834266666666666 0.3175816666666666
0.7200683333333333 0.9401366666666666 0.3066966666666666
0.7065033333333330 0.9130066666666664 0.2875016666666666
0.7319383333333332 0.9638766666666664 0.2574966666666666
0.7614983333333333 0.5229966666666667 0.2582266666666666
0.7833683333333332 0.5667366666666666 0.2693516666666666
0.9005933333333332 0.9911766666666666 0.1904116666666666
0.7687483333333333 0.9251816666666666 0.2202066666666666
0.8587583333333331 0.9956716666666665 0.2008266666666666
0.8095483333333331 0.9709066666666666 0.2091266666666666
0.9072433333333333 0.7036216666666666 0.2892716666666666
0.9594133333333331 0.7297066666666666 0.3186666666666666
0.5165733333333332 0.7582866666666667 0.3175816666666666
0.5598633333333334 0.7799316666666668 0.3066966666666666
0.5869933333333331 0.7934966666666665 0.2875016666666666
0.5361233333333332 0.7680616666666665 0.2574966666666666
0.9770033333333331 0.7385016666666665 0.2582266666666666
0.9332633333333332 0.7166316666666666 0.2693516666666666
0.5088233333333334 0.9094166666666667 0.1904116666666666
0.5748183333333332 0.8435666666666666 0.2202066666666666
0.5043283333333332 0.8630866666666664 0.2008266666666666
0.5290933333333332 0.8386416666666665 0.2091266666666666
0.8702883333333332 0.6297116666666667 0.0440616666666666
0.8963733333333331 0.6036266666666666 0.0146666666666667
0.9249533333333332 0.5750466666666667 0.0157516666666667
0.9465983333333331 0.5534016666666667 0.0266366666666667
0.9601633333333331 0.5398366666666666 0.0458316666666667
0.9347283333333333 0.5652716666666665 0.0758366666666666
0.9051683333333332 0.5948316666666665 0.0751066666666667
0.8832983333333332 0.6167016666666667 0.0639816666666666
0.7660733333333333 0.9239166666666666 0.1429216666666666
0.8979183333333333 0.9897666666666667 0.1131266666666666
0.8079083333333332 0.9702466666666666 0.1325066666666666
0.8571183333333332 0.9946916666666665 0.1242066666666666
0.8702883333333331 0.7405766666666665 0.0440616666666666
0.8963733333333331 0.7927466666666665 0.0146666666666667
0.9249533333333332 0.8499066666666665 0.0157516666666667
0.9465983333333331 0.8931966666666665 0.0266366666666667
0.9601633333333330 0.9203266666666665 0.0458316666666667
0.9347283333333333 0.8694566666666667 0.0758366666666666
0.9051683333333334 0.8103366666666666 0.0751066666666667
0.8832983333333331 0.7665966666666665 0.0639816666666666
0.5760833333333332 0.8421566666666666 0.1429216666666666
0.5102333333333333 0.9081516666666667 0.1131266666666666
0.5297533333333332 0.8376616666666665 0.1325066666666666
0.5053083333333332 0.8624266666666667 0.1242066666666666
0.7594233333333332 0.6297116666666667 0.0440616666666666
0.7072533333333332 0.6036266666666666 0.0146666666666667
0.6500933333333334 0.5750466666666667 0.0157516666666667
0.6068033333333333 0.5534016666666667 0.0266366666666667
0.5796733333333332 0.5398366666666666 0.0458316666666667
0.6305433333333331 0.5652716666666665 0.0758366666666666
0.6896633333333332 0.5948316666666665 0.0751066666666667
0.7334033333333333 0.6167016666666667 0.0639816666666666
0.6578433333333332 0.7339266666666665 0.1429216666666666
0.5918483333333332 0.6020816666666665 0.1131266666666666
0.6623383333333331 0.6920916666666665 0.1325066666666666
0.6375733333333332 0.6428816666666667 0.1242066666666666
0.5760833333333332 0.7339266666666665 0.1429216666666666
0.5102333333333332 0.6020816666666665 0.1131266666666666
0.5297533333333332 0.6920916666666665 0.1325066666666666
0.5053083333333332 0.6428816666666667 0.1242066666666666
0.7660733333333333 0.8421566666666666 0.1429216666666666
0.8979183333333333 0.9081516666666667 0.1131266666666666
0.8079083333333332 0.8376616666666665 0.1325066666666666
0.8571183333333332 0.8624266666666667 0.1242066666666666
0.6578433333333332 0.9239166666666666 0.1429216666666666
0.5918483333333333 0.9897666666666667 0.1131266666666666
0.6623383333333331 0.9702466666666666 0.1325066666666666
0.6375733333333332 0.9946916666666665 0.1242066666666666
0.9005933333333332 0.9094166666666667 0.1904116666666666
0.7687483333333333 0.8435666666666666 0.2202066666666666
0.8587583333333331 0.8630866666666664 0.2008266666666666
0.8095483333333331 0.8386416666666665 0.2091266666666666
0.5905833333333332 0.9911766666666666 0.1904116666666666
0.6564333333333332 0.9251816666666666 0.2202066666666666
0.6369133333333332 0.9956716666666665 0.2008266666666666
0.6613583333333330 0.9709066666666666 0.2091266666666666
0.5088233333333334 0.5994066666666668 0.1904116666666666
0.5748183333333332 0.7312516666666665 0.2202066666666666
0.5043283333333332 0.6412416666666667 0.2008266666666666
0.5290933333333332 0.6904516666666666 0.2091266666666666
0.6297116666666667 0.8702883333333333 0.4559383333333333
0.6036266666666666 0.8963733333333332 0.4853333333333332
0.5750466666666667 0.9249533333333333 0.4842483333333332
0.5534016666666667 0.9465983333333333 0.4733633333333332
0.5398366666666666 0.9601633333333331 0.4541683333333332
0.5652716666666666 0.9347283333333334 0.4241633333333333
0.5948316666666665 0.9051683333333334 0.4248933333333333
0.6167016666666667 0.8832983333333334 0.4360183333333332
0.9239166666666665 0.7660733333333334 0.3570783333333332
0.9897666666666667 0.8979183333333334 0.3868733333333332
0.9702466666666666 0.8079083333333333 0.3674933333333333
0.9946916666666665 0.8571183333333334 0.3757933333333332
0.6297116666666667 0.7594233333333333 0.4559383333333333
0.6036266666666666 0.7072533333333333 0.4853333333333332
0.5750466666666666 0.6500933333333334 0.4842483333333332
0.5534016666666667 0.6068033333333334 0.4733633333333332
0.5398366666666666 0.5796733333333333 0.4541683333333332
0.5652716666666666 0.6305433333333331 0.4241633333333333
0.5948316666666666 0.6896633333333333 0.4248933333333333
0.6167016666666666 0.7334033333333333 0.4360183333333332
0.7339266666666665 0.6578433333333332 0.3570783333333332
0.6020816666666665 0.5918483333333332 0.3868733333333332
0.6920916666666665 0.6623383333333331 0.3674933333333333
0.6428816666666667 0.6375733333333332 0.3757933333333332
0.7405766666666667 0.8702883333333333 0.4559383333333333
0.7927466666666666 0.8963733333333332 0.4853333333333332
0.8499066666666666 0.9249533333333333 0.4842483333333332
0.8931966666666666 0.9465983333333333 0.4733633333333332
0.9203266666666665 0.9601633333333331 0.4541683333333332
0.8694566666666667 0.9347283333333334 0.4241633333333333
0.8103366666666666 0.9051683333333334 0.4248933333333333
0.7665966666666666 0.8832983333333334 0.4360183333333332
0.8421566666666666 0.5760833333333333 0.3570783333333332
0.9081516666666666 0.5102333333333332 0.3868733333333332
0.8376616666666665 0.5297533333333332 0.3674933333333333
0.8624266666666666 0.5053083333333331 0.3757933333333332
0.7036216666666664 0.7963783333333331 0.2107283333333333
0.7297066666666666 0.7702933333333333 0.1813333333333333
0.7582866666666667 0.7417133333333333 0.1824183333333333
0.7799316666666667 0.7200683333333334 0.1933033333333333
0.7934966666666665 0.7065033333333333 0.2124983333333333
0.7680616666666665 0.7319383333333334 0.2425033333333333
0.7385016666666664 0.7614983333333333 0.2417733333333333
0.7166316666666664 0.7833683333333332 0.2306483333333333
0.5994066666666665 0.5905833333333332 0.3095883333333332
0.7312516666666665 0.6564333333333333 0.2797933333333333
0.6412416666666667 0.6369133333333333 0.2991733333333332
0.6904516666666667 0.6613583333333332 0.2908733333333333
0.7036216666666666 0.9072433333333332 0.2107283333333333
0.7297066666666666 0.9594133333333332 0.1813333333333333
0.7582866666666666 0.5165733333333333 0.1824183333333333
0.7799316666666666 0.5598633333333335 0.1933033333333333
0.7934966666666664 0.5869933333333333 0.2124983333333333
0.7680616666666664 0.5361233333333333 0.2425033333333333
0.7385016666666664 0.9770033333333330 0.2417733333333333
0.7166316666666666 0.9332633333333331 0.2306483333333333
0.9094166666666664 0.5088233333333334 0.3095883333333332
0.8435666666666666 0.5748183333333333 0.2797933333333333
0.8630866666666666 0.5043283333333332 0.2991733333333332
0.8386416666666665 0.5290933333333333 0.2908733333333333
0.5927566666666664 0.7963783333333331 0.2107283333333333
0.5405866666666667 0.7702933333333333 0.1813333333333333
0.9834266666666666 0.7417133333333333 0.1824183333333333
0.9401366666666666 0.7200683333333334 0.1933033333333333
0.9130066666666665 0.7065033333333333 0.2124983333333333
0.9638766666666664 0.7319383333333334 0.2425033333333333
0.5229966666666666 0.7614983333333333 0.2417733333333333
0.5667366666666666 0.7833683333333332 0.2306483333333333
0.9911766666666665 0.9005933333333334 0.3095883333333332
0.9251816666666666 0.7687483333333331 0.2797933333333333
0.9956716666666665 0.8587583333333334 0.2991733333333332
0.9709066666666665 0.8095483333333332 0.2908733333333333
0.9094166666666665 0.9005933333333334 0.3095883333333332
0.8435666666666665 0.7687483333333331 0.2797933333333333
0.8630866666666666 0.8587583333333334 0.2991733333333332
0.8386416666666665 0.8095483333333332 0.2908733333333333
0.5994066666666665 0.5088233333333334 0.3095883333333332
0.7312516666666665 0.5748183333333333 0.2797933333333333
0.6412416666666666 0.5043283333333332 0.2991733333333332
0.6904516666666666 0.5290933333333333 0.2908733333333333
0.9911766666666665 0.5905833333333332 0.3095883333333332
0.9251816666666666 0.6564333333333333 0.2797933333333333
0.9956716666666664 0.6369133333333333 0.2991733333333332
0.9709066666666666 0.6613583333333332 0.2908733333333333
0.7339266666666666 0.5760833333333333 0.3570783333333332
0.6020816666666665 0.5102333333333332 0.3868733333333332
0.6920916666666667 0.5297533333333332 0.3674933333333333
0.6428816666666666 0.5053083333333331 0.3757933333333332
0.9239166666666665 0.6578433333333332 0.3570783333333332
0.9897666666666665 0.5918483333333332 0.3868733333333332
0.9702466666666665 0.6623383333333331 0.3674933333333333
0.9946916666666664 0.6375733333333332 0.3757933333333332
0.8421566666666667 0.7660733333333334 0.3570783333333332
0.9081516666666666 0.8979183333333334 0.3868733333333332
0.8376616666666665 0.8079083333333333 0.3674933333333333
0.8624266666666667 0.8571183333333334 0.3757933333333332
0.9630449999999998 0.5369549999999998 0.6226049999999999
0.9369599999999999 0.5630399999999999 0.6519999999999999
0.9083799999999997 0.5916199999999999 0.6509149999999999
0.8867349999999999 0.6132649999999998 0.6400299999999999
0.8731699999999998 0.6268299999999999 0.6208349999999999
0.8986049999999999 0.6013950000000000 0.5908299999999999
0.9281649999999999 0.5718350000000000 0.5915599999999999
0.9500349999999997 0.5499650000000000 0.6026849999999999
0.7572499999999999 0.9327400000000000 0.5237449999999999
0.8230999999999998 0.5645850000000000 0.5535399999999999
0.8035799999999998 0.9745750000000000 0.5341599999999999
0.8280249999999999 0.5237849999999999 0.5424599999999998
0.9630449999999997 0.9260899999999999 0.6226049999999999
0.9369599999999998 0.8739199999999999 0.6519999999999999
0.9083799999999997 0.8167599999999999 0.6509149999999999
0.8867349999999999 0.7734699999999999 0.6400299999999999
0.8731699999999998 0.7463399999999999 0.6208349999999999
0.8986049999999999 0.7972100000000001 0.5908299999999999
0.9281649999999999 0.8563300000000001 0.5915599999999999
0.9500349999999997 0.9000699999999999 0.6026849999999999
0.5672600000000000 0.8245100000000000 0.5237449999999999
0.9354149999999999 0.7585150000000001 0.5535399999999999
0.5254250000000000 0.8290050000000000 0.5341599999999999
0.9762150000000001 0.8042400000000002 0.5424599999999998
0.5739099999999999 0.5369550000000000 0.6226049999999999
0.6260799999999999 0.5630399999999999 0.6519999999999999
0.6832399999999997 0.5916199999999999 0.6509149999999999
0.7265299999999998 0.6132649999999998 0.6400299999999999
0.7536599999999998 0.6268299999999999 0.6208349999999999
0.7027900000000000 0.6013950000000000 0.5908299999999999
0.6436700000000000 0.5718350000000000 0.5915599999999999
0.5999299999999999 0.5499650000000000 0.6026849999999999
0.6754900000000000 0.7427500000000000 0.5237449999999999
0.7414849999999998 0.6769000000000001 0.5535399999999999
0.6709949999999999 0.6964200000000000 0.5341599999999999
0.6957599999999999 0.6719750000000000 0.5424599999999998
0.5369550000000000 0.9630449999999998 0.8773949999999997
0.5630399999999999 0.9369599999999999 0.8479999999999999
0.5916199999999999 0.9083799999999999 0.8490849999999998
0.6132649999999998 0.8867349999999998 0.8599699999999998
0.6268299999999999 0.8731699999999998 0.8791649999999999
0.6013950000000000 0.8986050000000001 0.9091699999999999
0.5718350000000000 0.9281650000000000 0.9084399999999998
0.5499650000000000 0.9500350000000000 0.8973149999999999
0.9327400000000000 0.7572500000000001 0.9762549999999999
0.5645850000000001 0.8231000000000001 0.9464600000000000
0.9745749999999999 0.8035800000000000 0.9658399999999998
0.5237849999999999 0.8280250000000001 0.9575399999999999
0.5369550000000000 0.5739100000000000 0.8773949999999997
0.5630400000000000 0.6260800000000000 0.8479999999999999
0.5916199999999999 0.6832400000000000 0.8490849999999998
0.6132649999999998 0.7265300000000000 0.8599699999999998
0.6268299999999999 0.7536599999999999 0.8791649999999999
0.6013950000000000 0.7027900000000000 0.9091699999999999
0.5718350000000000 0.6436700000000000 0.9084399999999998
0.5499650000000000 0.5999300000000000 0.8973149999999999
0.7427499999999999 0.6754900000000000 0.9762549999999999
0.6769000000000001 0.7414849999999999 0.9464600000000000
0.6964199999999999 0.6709950000000000 0.9658399999999998
0.6719750000000000 0.6957599999999999 0.9575399999999999
0.9260899999999999 0.9630449999999998 0.8773949999999997
0.8739199999999999 0.9369599999999999 0.8479999999999999
0.8167599999999999 0.9083799999999999 0.8490849999999998
0.7734699999999999 0.8867349999999998 0.8599699999999998
0.7463399999999999 0.8731699999999998 0.8791649999999999
0.7972100000000000 0.8986050000000001 0.9091699999999999
0.8563300000000000 0.9281650000000000 0.9084399999999998
0.9000700000000000 0.9500350000000000 0.8973149999999999
0.8245099999999999 0.5672600000000000 0.9762549999999999
0.7585150000000001 0.9354150000000001 0.9464600000000000
0.8290049999999999 0.5254250000000000 0.9658399999999998
0.8042400000000001 0.9762150000000002 0.9575399999999999
0.7427499999999999 0.5672600000000000 0.9762549999999999
0.6769000000000001 0.9354150000000001 0.9464600000000000
0.6964200000000000 0.5254250000000000 0.9658399999999998
0.6719750000000000 0.9762150000000002 0.9575399999999999
0.9327399999999999 0.6754900000000000 0.9762549999999999
0.5645850000000000 0.7414849999999999 0.9464600000000000
0.9745749999999999 0.6709950000000000 0.9658399999999998
0.5237849999999999 0.6957599999999999 0.9575399999999999
0.8245100000000000 0.7572500000000001 0.9762549999999999
0.7585150000000001 0.8231000000000001 0.9464600000000000
0.8290050000000000 0.8035800000000000 0.9658399999999998
0.8042400000000001 0.8280250000000001 0.9575399999999999
0.5672600000000000 0.7427500000000000 0.5237449999999999
0.9354149999999999 0.6769000000000001 0.5535399999999999
0.5254250000000000 0.6964200000000000 0.5341599999999999
0.9762149999999999 0.6719750000000000 0.5424599999999998
0.7572500000000000 0.8245100000000000 0.5237449999999999
0.8230999999999999 0.7585150000000001 0.5535399999999999
0.8035800000000000 0.8290050000000000 0.5341599999999999
0.8280250000000000 0.8042400000000002 0.5424599999999998
0.6754899999999999 0.9327400000000000 0.5237449999999999
0.7414849999999998 0.5645850000000000 0.5535399999999999
0.6709949999999999 0.9745750000000000 0.5341599999999999
0.6957599999999999 0.5237849999999999 0.5424599999999998
0.7963783333333333 0.7036216666666666 0.7892716666666665
0.7702933333333333 0.7297066666666667 0.8186666666666664
0.7417133333333332 0.7582866666666666 0.8175816666666665
0.7200683333333333 0.7799316666666667 0.8066966666666665
0.7065033333333332 0.7934966666666665 0.7875016666666665
0.7319383333333332 0.7680616666666666 0.7574966666666665
0.7614983333333333 0.7385016666666666 0.7582266666666665
0.7833683333333333 0.7166316666666667 0.7693516666666665
0.5905833333333331 0.5994066666666666 0.6904116666666665
0.6564333333333332 0.7312516666666665 0.7202066666666664
0.6369133333333332 0.6412416666666666 0.7008266666666666
0.6613583333333332 0.6904516666666666 0.7091266666666666
0.7963783333333332 0.5927566666666666 0.7892716666666665
0.7702933333333332 0.5405866666666667 0.8186666666666664
0.7417133333333332 0.9834266666666664 0.8175816666666665
0.7200683333333332 0.9401366666666665 0.8066966666666665
0.7065033333333330 0.9130066666666664 0.7875016666666665
0.7319383333333332 0.9638766666666665 0.7574966666666665
0.7614983333333333 0.5229966666666667 0.7582266666666665
0.7833683333333332 0.5667366666666667 0.7693516666666665
0.9005933333333332 0.9911766666666666 0.6904116666666665
0.7687483333333333 0.9251816666666666 0.7202066666666664
0.8587583333333332 0.9956716666666666 0.7008266666666666
0.8095483333333331 0.9709066666666666 0.7091266666666666
0.9072433333333334 0.7036216666666667 0.7892716666666665
0.9594133333333331 0.7297066666666666 0.8186666666666664
0.5165733333333332 0.7582866666666666 0.8175816666666665
0.5598633333333334 0.7799316666666667 0.8066966666666665
0.5869933333333331 0.7934966666666665 0.7875016666666665
0.5361233333333333 0.7680616666666666 0.7574966666666665
0.9770033333333331 0.7385016666666666 0.7582266666666665
0.9332633333333332 0.7166316666666667 0.7693516666666665
0.5088233333333333 0.9094166666666665 0.6904116666666665
0.5748183333333333 0.8435666666666667 0.7202066666666664
0.5043283333333332 0.8630866666666666 0.7008266666666666
0.5290933333333332 0.8386416666666665 0.7091266666666666
0.8702883333333332 0.6297116666666667 0.5440616666666666
0.8963733333333331 0.6036266666666666 0.5146666666666665
0.9249533333333332 0.5750466666666668 0.5157516666666665
0.9465983333333333 0.5534016666666667 0.5266366666666665
0.9601633333333333 0.5398366666666666 0.5458316666666666
0.9347283333333334 0.5652716666666666 0.5758366666666667
0.9051683333333332 0.5948316666666666 0.5751066666666665
0.8832983333333333 0.6167016666666667 0.5639816666666665
0.7660733333333333 0.9239166666666665 0.6429216666666665
0.8979183333333332 0.9897666666666666 0.6131266666666665
0.8079083333333332 0.9702466666666665 0.6325066666666666
0.8571183333333331 0.9946916666666665 0.6242066666666666
0.8702883333333332 0.7405766666666667 0.5440616666666666
0.8963733333333331 0.7927466666666666 0.5146666666666665
0.9249533333333332 0.8499066666666665 0.5157516666666665
0.9465983333333331 0.8931966666666666 0.5266366666666665
0.9601633333333331 0.9203266666666665 0.5458316666666666
0.9347283333333334 0.8694566666666667 0.5758366666666667
0.9051683333333334 0.8103366666666666 0.5751066666666665
0.8832983333333332 0.7665966666666666 0.5639816666666665
0.5760833333333331 0.8421566666666666 0.6429216666666665
0.5102333333333333 0.9081516666666666 0.6131266666666665
0.5297533333333331 0.8376616666666665 0.6325066666666666
0.5053083333333331 0.8624266666666667 0.6242066666666666
0.7594233333333333 0.6297116666666667 0.5440616666666666
0.7072533333333332 0.6036266666666666 0.5146666666666665
0.6500933333333334 0.5750466666666668 0.5157516666666665
0.6068033333333334 0.5534016666666667 0.5266366666666665
0.5796733333333333 0.5398366666666666 0.5458316666666666
0.6305433333333331 0.5652716666666666 0.5758366666666667
0.6896633333333332 0.5948316666666666 0.5751066666666665
0.7334033333333334 0.6167016666666667 0.5639816666666665
0.6578433333333332 0.7339266666666665 0.6429216666666665
0.5918483333333331 0.6020816666666665 0.6131266666666665
0.6623383333333331 0.6920916666666665 0.6325066666666666
0.6375733333333332 0.6428816666666666 0.6242066666666666
0.5760833333333332 0.7339266666666665 0.6429216666666665
0.5102333333333332 0.6020816666666665 0.6131266666666665
0.5297533333333332 0.6920916666666665 0.6325066666666666
0.5053083333333331 0.6428816666666666 0.6242066666666666
0.7660733333333332 0.8421566666666666 0.6429216666666665
0.8979183333333333 0.9081516666666666 0.6131266666666665
0.8079083333333331 0.8376616666666665 0.6325066666666666
0.8571183333333331 0.8624266666666667 0.6242066666666666
0.6578433333333332 0.9239166666666665 0.6429216666666665
0.5918483333333332 0.9897666666666666 0.6131266666666665
0.6623383333333331 0.9702466666666665 0.6325066666666666
0.6375733333333332 0.9946916666666665 0.6242066666666666
0.9005933333333332 0.9094166666666665 0.6904116666666665
0.7687483333333333 0.8435666666666667 0.7202066666666664
0.8587583333333331 0.8630866666666666 0.7008266666666666
0.8095483333333331 0.8386416666666665 0.7091266666666666
0.5905833333333331 0.9911766666666666 0.6904116666666665
0.6564333333333332 0.9251816666666666 0.7202066666666664
0.6369133333333332 0.9956716666666666 0.7008266666666666
0.6613583333333332 0.9709066666666666 0.7091266666666666
0.5088233333333333 0.5994066666666666 0.6904116666666665
0.5748183333333332 0.7312516666666665 0.7202066666666664
0.5043283333333332 0.6412416666666666 0.7008266666666666
0.5290933333333332 0.6904516666666666 0.7091266666666666
0.6297116666666667 0.8702883333333333 0.9559383333333331
0.6036266666666668 0.8963733333333334 0.9853333333333332
0.5750466666666667 0.9249533333333334 0.9842483333333331
0.5534016666666667 0.9465983333333333 0.9733633333333331
0.5398366666666666 0.9601633333333333 0.9541683333333331
0.5652716666666666 0.9347283333333335 0.9241633333333332
0.5948316666666666 0.9051683333333334 0.9248933333333331
0.6167016666666668 0.8832983333333334 0.9360183333333331
0.9239166666666665 0.7660733333333333 0.8570783333333333
0.9897666666666667 0.8979183333333335 0.8868733333333332
0.9702466666666666 0.8079083333333332 0.8674933333333332
0.9946916666666665 0.8571183333333333 0.8757933333333332
0.6297116666666667 0.7594233333333335 0.9559383333333331
0.6036266666666666 0.7072533333333333 0.9853333333333332
0.5750466666666667 0.6500933333333334 0.9842483333333331
0.5534016666666667 0.6068033333333334 0.9733633333333331
0.5398366666666666 0.5796733333333333 0.9541683333333331
0.5652716666666666 0.6305433333333332 0.9241633333333332
0.5948316666666666 0.6896633333333333 0.9248933333333331
0.6167016666666667 0.7334033333333334 0.9360183333333331
0.7339266666666666 0.6578433333333333 0.8570783333333333
0.6020816666666665 0.5918483333333333 0.8868733333333332
0.6920916666666665 0.6623383333333333 0.8674933333333332
0.6428816666666667 0.6375733333333333 0.8757933333333332
0.7405766666666667 0.8702883333333333 0.9559383333333331
0.7927466666666666 0.8963733333333334 0.9853333333333332
0.8499066666666666 0.9249533333333334 0.9842483333333331
0.8931966666666666 0.9465983333333333 0.9733633333333331
0.9203266666666665 0.9601633333333333 0.9541683333333331
0.8694566666666667 0.9347283333333335 0.9241633333333332
0.8103366666666666 0.9051683333333334 0.9248933333333331
0.7665966666666667 0.8832983333333334 0.9360183333333331
0.8421566666666667 0.5760833333333333 0.8570783333333333
0.9081516666666667 0.5102333333333333 0.8868733333333332
0.8376616666666666 0.5297533333333333 0.8674933333333332
0.8624266666666666 0.5053083333333332 0.8757933333333332
0.7036216666666665 0.7963783333333332 0.7107283333333332
0.7297066666666665 0.7702933333333332 0.6813333333333332
0.7582866666666666 0.7417133333333332 0.6824183333333332
0.7799316666666666 0.7200683333333332 0.6933033333333333
0.7934966666666664 0.7065033333333332 0.7124983333333332
0.7680616666666665 0.7319383333333334 0.7425033333333332
0.7385016666666664 0.7614983333333333 0.7417733333333332
0.7166316666666666 0.7833683333333332 0.7306483333333332
0.5994066666666666 0.5905833333333332 0.8095883333333331
0.7312516666666665 0.6564333333333333 0.7797933333333332
0.6412416666666667 0.6369133333333333 0.7991733333333332
0.6904516666666667 0.6613583333333333 0.7908733333333331
0.7036216666666666 0.9072433333333333 0.7107283333333332
0.7297066666666665 0.9594133333333332 0.6813333333333332
0.7582866666666664 0.5165733333333332 0.6824183333333332
0.7799316666666665 0.5598633333333334 0.6933033333333333
0.7934966666666664 0.5869933333333331 0.7124983333333332
0.7680616666666665 0.5361233333333333 0.7425033333333332
0.7385016666666665 0.9770033333333331 0.7417733333333332
0.7166316666666666 0.9332633333333331 0.7306483333333332
0.9094166666666665 0.5088233333333334 0.8095883333333331
0.8435666666666667 0.5748183333333333 0.7797933333333332
0.8630866666666666 0.5043283333333333 0.7991733333333332
0.8386416666666666 0.5290933333333333 0.7908733333333331
0.5927566666666665 0.7963783333333332 0.7107283333333332
0.5405866666666665 0.7702933333333332 0.6813333333333332
0.9834266666666664 0.7417133333333332 0.6824183333333332
0.9401366666666665 0.7200683333333332 0.6933033333333333
0.9130066666666664 0.7065033333333332 0.7124983333333332
0.9638766666666664 0.7319383333333334 0.7425033333333332
0.5229966666666666 0.7614983333333333 0.7417733333333332
0.5667366666666666 0.7833683333333332 0.7306483333333332
0.9911766666666665 0.9005933333333332 0.8095883333333331
0.9251816666666666 0.7687483333333333 0.7797933333333332
0.9956716666666665 0.8587583333333333 0.7991733333333332
0.9709066666666666 0.8095483333333332 0.7908733333333331
0.9094166666666665 0.9005933333333332 0.8095883333333331
0.8435666666666666 0.7687483333333333 0.7797933333333332
0.8630866666666666 0.8587583333333333 0.7991733333333332
0.8386416666666665 0.8095483333333332 0.7908733333333331
0.5994066666666666 0.5088233333333334 0.8095883333333331
0.7312516666666666 0.5748183333333333 0.7797933333333332
0.6412416666666666 0.5043283333333333 0.7991733333333332
0.6904516666666667 0.5290933333333333 0.7908733333333331
0.9911766666666666 0.5905833333333332 0.8095883333333331
0.9251816666666666 0.6564333333333333 0.7797933333333332
0.9956716666666665 0.6369133333333333 0.7991733333333332
0.9709066666666666 0.6613583333333333 0.7908733333333331
0.7339266666666666 0.5760833333333333 0.8570783333333333
0.6020816666666666 0.5102333333333333 0.8868733333333332
0.6920916666666667 0.5297533333333333 0.8674933333333332
0.6428816666666667 0.5053083333333332 0.8757933333333332
0.9239166666666666 0.6578433333333333 0.8570783333333333
0.9897666666666666 0.5918483333333333 0.8868733333333332
0.9702466666666666 0.6623383333333333 0.8674933333333332
0.9946916666666665 0.6375733333333333 0.8757933333333332
0.8421566666666666 0.7660733333333333 0.8570783333333333
0.9081516666666667 0.8979183333333335 0.8868733333333332
0.8376616666666665 0.8079083333333332 0.8674933333333332
0.8624266666666667 0.8571183333333333 0.8757933333333332
