# framework
1.000000
 49.6433999999999997   0.0000000000000000         0.0000000000
-24.8216999999999928  42.9924455302324020         0.0000000000
  0.0000000000000035   0.0000000000000060        56.7343000000
Zn O C 
24 72 324 
Direct
0.1666650000000000 0.3333349999999999 0.2499999999999999
0.3333349999999999 0.1666650000000000 0.7499999999999999
0.4999983333333333 0.0000016666666667 0.5833333333333331
0.1666683333333333 0.3333316666666667 0.0833333333333332
0.4999983333333333 0.4999966666666667 0.5833333333333331
0.0000033333333334 0.0000016666666666 0.5833333333333331
0.3333316666666667 0.1666683333333333 0.9166666666666664
0.0000016666666667 0.4999983333333333 0.4166666666666665
0.0000016666666666 0.0000033333333334 0.4166666666666665
0.4999966666666666 0.4999983333333333 0.4166666666666665
0.1666649999999999 0.8333349999999998 0.2499999999999999
0.3333350000000000 0.6666650000000001 0.7499999999999999
0.1666683333333333 0.8333316666666666 0.0833333333333332
0.0000033333333334 0.5000016666666667 0.5833333333333331
0.3333316666666667 0.6666683333333333 0.9166666666666664
0.4999966666666666 0.9999983333333332 0.4166666666666665
0.6666650000000000 0.3333349999999999 0.2499999999999999
0.8333349999999997 0.1666650000000000 0.7499999999999999
0.6666683333333332 0.3333316666666667 0.0833333333333332
0.8333316666666665 0.1666683333333333 0.9166666666666664
0.6666650000000000 0.8333349999999998 0.2499999999999999
0.8333349999999999 0.6666650000000001 0.7499999999999999
0.6666683333333332 0.8333316666666666 0.0833333333333332
0.8333316666666667 0.6666683333333333 0.9166666666666664
0.2037000000000000 0.2963000000000000 0.2499999999999999
0.2963000000000000 0.2037000000000000 0.7499999999999999
0.2036999999999999 0.4073999999999999 0.2499999999999999
0.2963000000000000 0.0926000000000000 0.7499999999999999
0.0926000000000000 0.2963000000000000 0.2499999999999999
0.4073999999999999 0.2037000000000000 0.7499999999999999
0.0370333333333332 0.4629666666666666 0.5833333333333331
0.1296333333333333 0.3703666666666666 0.0833333333333332
0.0370333333333332 0.0740666666666666 0.5833333333333331
0.1296333333333332 0.2592666666666666 0.0833333333333332
0.4259333333333333 0.4629666666666666 0.5833333333333331
0.2407333333333332 0.3703666666666666 0.0833333333333332
0.3703666666666666 0.1296333333333332 0.9166666666666664
0.4629666666666666 0.0370333333333333 0.4166666666666665
0.3703666666666666 0.2407333333333332 0.9166666666666664
0.4629666666666666 0.4259333333333333 0.4166666666666665
0.2592666666666666 0.1296333333333332 0.9166666666666664
0.0740666666666666 0.0370333333333333 0.4166666666666665
0.2037000000000000 0.7963000000000000 0.2499999999999999
0.2963000000000001 0.7037000000000000 0.7499999999999999
0.2037000000000000 0.9074000000000000 0.2499999999999999
0.2963000000000000 0.5926000000000000 0.7499999999999999
0.0926000000000000 0.7963000000000000 0.2499999999999999
0.4074000000000000 0.7037000000000000 0.7499999999999999
0.0370333333333333 0.9629666666666664 0.5833333333333331
0.1296333333333334 0.8703666666666666 0.0833333333333332
0.0370333333333333 0.5740666666666665 0.5833333333333331
0.1296333333333333 0.7592666666666666 0.0833333333333332
0.4259333333333333 0.9629666666666664 0.5833333333333331
0.2407333333333333 0.8703666666666666 0.0833333333333332
0.3703666666666666 0.6296333333333333 0.9166666666666664
0.4629666666666666 0.5370333333333331 0.4166666666666665
0.3703666666666667 0.7407333333333332 0.9166666666666664
0.4629666666666665 0.9259333333333331 0.4166666666666665
0.2592666666666666 0.6296333333333333 0.9166666666666664
0.0740666666666666 0.5370333333333331 0.4166666666666665
0.7036999999999999 0.2963000000000000 0.2499999999999999
0.7962999999999998 0.2037000000000000 0.7499999999999999
0.7036999999999999 0.4073999999999999 0.2499999999999999
0.7962999999999999 0.0926000000000000 0.7499999999999999
0.5925999999999999 0.2963000000000000 0.2499999999999999
0.9073999999999998 0.2037000000000000 0.7499999999999999
0.5370333333333331 0.4629666666666666 0.5833333333333331
0.6296333333333333 0.3703666666666666 0.0833333333333332
0.5370333333333331 0.0740666666666666 0.5833333333333331
0.6296333333333332 0.2592666666666666 0.0833333333333332
0.9259333333333331 0.4629666666666666 0.5833333333333331
0.7407333333333331 0.3703666666666666 0.0833333333333332
0.8703666666666664 0.1296333333333332 0.9166666666666664
0.9629666666666664 0.0370333333333333 0.4166666666666665
0.8703666666666665 0.2407333333333332 0.9166666666666664
0.9629666666666664 0.4259333333333333 0.4166666666666665
0.7592666666666664 0.1296333333333332 0.9166666666666664
0.5740666666666665 0.0370333333333333 0.4166666666666665
0.7036999999999999 0.7963000000000000 0.2499999999999999
0.7962999999999999 0.7037000000000000 0.7499999999999999
0.7037000000000000 0.9074000000000000 0.2499999999999999
0.7962999999999999 0.5926000000000000 0.7499999999999999
0.5925999999999999 0.7963000000000000 0.2499999999999999
0.9073999999999999 0.7037000000000000 0.7499999999999999
0.5370333333333331 0.9629666666666664 0.5833333333333331
0.6296333333333333 0.8703666666666666 0.0833333333333332
0.5370333333333331 0.5740666666666665 0.5833333333333331
0.6296333333333332 0.7592666666666666 0.0833333333333332
0.9259333333333332 0.9629666666666664 0.5833333333333331
0.7407333333333332 0.8703666666666666 0.0833333333333332
0.8703666666666665 0.6296333333333333 0.9166666666666664
0.9629666666666664 0.5370333333333331 0.4166666666666665
0.8703666666666666 0.7407333333333332 0.9166666666666664
0.9629666666666663 0.9259333333333331 0.4166666666666665
0.7592666666666665 0.6296333333333333 0.9166666666666664
0.5740666666666665 0.5370333333333331 0.4166666666666665
0.2276500000000000 0.2723500000000000 0.2499999999999999
0.2723499999999999 0.2276500000000000 0.7499999999999999
0.2276500000000000 0.4552999999999999 0.2499999999999999
0.2723499999999999 0.0447000000000000 0.7499999999999999
0.0447000000000000 0.2723500000000000 0.2499999999999999
0.4552999999999999 0.2276500000000000 0.7499999999999999
0.2500000000000000 0.2500000000000000 0.2499999999999999
0.2500000000000000 0.2500000000000000 0.7499999999999999
0.2499999999999999 0.0000000000000000 0.2499999999999999
0.2499999999999999 0.0000000000000000 0.7499999999999999
0.0000000000000000 0.2500000000000000 0.2499999999999999
0.0000000000000000 0.2500000000000000 0.7499999999999999
0.2500000000000000 0.2500000000000001 0.1667000000000000
0.2500000000000000 0.2500000000000000 0.8332999999999998
0.2499999999999999 0.0000000000000000 0.1667000000000000
0.2500000000000000 0.0000000000000000 0.8332999999999998
0.0000000000000000 0.2500000000000001 0.1667000000000000
0.0000000000000000 0.2500000000000000 0.8332999999999998
0.2500000000000000 0.2500000000000000 0.0833000000000000
0.2500000000000000 0.2500000000000000 0.9166999999999998
0.2500000000000000 0.0000000000000000 0.0833000000000000
0.2500000000000000 0.0000000000000000 0.9166999999999998
0.0000000000000000 0.2500000000000000 0.0833000000000000
0.0000000000000000 0.2500000000000000 0.9166999999999998
0.2500000000000000 0.2500000000000000 0.0000000000000000
0.2499999999999999 0.0000000000000000 0.0000000000000000
0.0000000000000000 0.2500000000000000 0.0000000000000000
0.0609833333333333 0.4390166666666666 0.5833333333333331
0.1056833333333334 0.3943166666666666 0.0833333333333332
0.0609833333333333 0.1219666666666667 0.5833333333333331
0.1056833333333333 0.2113666666666666 0.0833333333333332
0.3780333333333333 0.4390166666666666 0.5833333333333331
0.2886333333333333 0.3943166666666666 0.0833333333333332
0.0833333333333333 0.4166666666666666 0.5833333333333331
0.0833333333333333 0.4166666666666666 0.0833333333333332
0.0833333333333332 0.1666666666666667 0.5833333333333331
0.0833333333333333 0.1666666666666667 0.0833333333333332
0.3333333333333333 0.4166666666666666 0.5833333333333331
0.3333333333333333 0.4166666666666666 0.0833333333333332
0.0833333333333333 0.4166666666666666 0.5000333333333332
0.0833333333333333 0.4166666666666666 0.1666333333333334
0.0833333333333332 0.1666666666666666 0.5000333333333332
0.0833333333333332 0.1666666666666667 0.1666333333333334
0.3333333333333333 0.4166666666666666 0.5000333333333332
0.3333333333333333 0.4166666666666666 0.1666333333333334
0.0833333333333333 0.4166666666666666 0.4166333333333332
0.0833333333333333 0.4166666666666666 0.2500333333333333
0.0833333333333332 0.1666666666666667 0.4166333333333332
0.0833333333333332 0.1666666666666667 0.2500333333333333
0.3333333333333333 0.4166666666666666 0.4166333333333332
0.3333333333333333 0.4166666666666666 0.2500333333333333
0.0833333333333333 0.4166666666666666 0.3333333333333333
0.0833333333333332 0.1666666666666666 0.3333333333333333
0.3333333333333333 0.4166666666666666 0.3333333333333333
0.3943166666666666 0.1056833333333334 0.9166666666666664
0.4390166666666665 0.0609833333333333 0.4166666666666665
0.3943166666666666 0.2886333333333333 0.9166666666666664
0.4390166666666666 0.3780333333333333 0.4166666666666665
0.2113666666666666 0.1056833333333334 0.9166666666666664
0.1219666666666667 0.0609833333333333 0.4166666666666665
0.4166666666666666 0.0833333333333332 0.9166666666666664
0.4166666666666666 0.0833333333333333 0.4166666666666665
0.4166666666666666 0.3333333333333333 0.9166666666666664
0.4166666666666666 0.3333333333333333 0.4166666666666665
0.1666666666666666 0.0833333333333332 0.9166666666666664
0.1666666666666666 0.0833333333333333 0.4166666666666665
0.4166666666666666 0.0833333333333333 0.8333666666666665
0.4166666666666666 0.0833333333333333 0.4999666666666666
0.4166666666666666 0.3333333333333333 0.8333666666666665
0.4166666666666666 0.3333333333333333 0.4999666666666666
0.1666666666666666 0.0833333333333333 0.8333666666666665
0.1666666666666666 0.0833333333333333 0.4999666666666666
0.4166666666666666 0.0833333333333332 0.7499666666666666
0.4166666666666666 0.0833333333333333 0.5833666666666666
0.4166666666666665 0.3333333333333333 0.7499666666666666
0.4166666666666666 0.3333333333333333 0.5833666666666666
0.1666666666666666 0.0833333333333332 0.7499666666666666
0.1666666666666666 0.0833333333333333 0.5833666666666666
0.4166666666666666 0.0833333333333332 0.6666666666666665
0.4166666666666665 0.3333333333333333 0.6666666666666665
0.1666666666666666 0.0833333333333332 0.6666666666666665
0.2276500000000000 0.7723500000000000 0.2499999999999999
0.2723500000000000 0.7276500000000000 0.7499999999999999
0.2276500000000000 0.9553000000000000 0.2499999999999999
0.2723499999999999 0.5447000000000000 0.7499999999999999
0.0447000000000000 0.7723500000000000 0.2499999999999999
0.4553000000000000 0.7276500000000000 0.7499999999999999
0.2500000000000000 0.7500000000000000 0.2499999999999999
0.2500000000000000 0.7500000000000000 0.7499999999999999
0.2500000000000000 0.4999999999999999 0.2499999999999999
0.2499999999999999 0.5000000000000000 0.7499999999999999
0.0000000000000000 0.7500000000000000 0.2499999999999999
0.0000000000000001 0.7500000000000000 0.7499999999999999
0.2500000000000001 0.7500000000000000 0.1667000000000000
0.2500000000000000 0.7500000000000000 0.8332999999999998
0.2500000000000000 0.5000000000000000 0.1667000000000000
0.2499999999999999 0.5000000000000000 0.8332999999999998
0.0000000000000000 0.7500000000000000 0.1667000000000000
0.0000000000000001 0.7500000000000000 0.8332999999999998
0.2500000000000000 0.7500000000000000 0.0833000000000000
0.2500000000000001 0.7500000000000000 0.9166999999999998
0.2500000000000000 0.5000000000000000 0.0833000000000000
0.2500000000000000 0.5000000000000000 0.9166999999999998
0.0000000000000001 0.7500000000000000 0.0833000000000000
0.0000000000000001 0.7500000000000000 0.9166999999999998
0.2500000000000000 0.7500000000000000 0.0000000000000000
0.2500000000000000 0.5000000000000000 0.0000000000000000
0.0000000000000001 0.7500000000000000 0.0000000000000000
0.0609833333333333 0.9390166666666664 0.5833333333333331
0.1056833333333334 0.8943166666666666 0.0833333333333332
0.0609833333333333 0.6219666666666666 0.5833333333333331
0.1056833333333333 0.7113666666666667 0.0833333333333332
0.3780333333333333 0.9390166666666664 0.5833333333333331
0.2886333333333333 0.8943166666666666 0.0833333333333332
0.0833333333333332 0.9166666666666664 0.5833333333333331
0.0833333333333332 0.9166666666666665 0.0833333333333332
0.0833333333333333 0.6666666666666666 0.5833333333333331
0.0833333333333333 0.6666666666666666 0.0833333333333332
0.3333333333333332 0.9166666666666664 0.5833333333333331
0.3333333333333332 0.9166666666666665 0.0833333333333332
0.0833333333333331 0.9166666666666664 0.5000333333333332
0.0833333333333332 0.9166666666666665 0.1666333333333334
0.0833333333333333 0.6666666666666666 0.5000333333333332
0.0833333333333333 0.6666666666666666 0.1666333333333334
0.3333333333333332 0.9166666666666664 0.5000333333333332
0.3333333333333333 0.9166666666666665 0.1666333333333334
0.0833333333333331 0.9166666666666664 0.4166333333333332
0.0833333333333331 0.9166666666666665 0.2500333333333333
0.0833333333333333 0.6666666666666666 0.4166333333333332
0.0833333333333332 0.6666666666666666 0.2500333333333333
0.3333333333333332 0.9166666666666664 0.4166333333333332
0.3333333333333332 0.9166666666666665 0.2500333333333333
0.0833333333333331 0.9166666666666665 0.3333333333333333
0.0833333333333333 0.6666666666666667 0.3333333333333333
0.3333333333333332 0.9166666666666665 0.3333333333333333
0.3943166666666666 0.6056833333333334 0.9166666666666664
0.4390166666666666 0.5609833333333332 0.4166666666666665
0.3943166666666668 0.7886333333333334 0.9166666666666664
0.4390166666666666 0.8780333333333332 0.4166666666666665
0.2113666666666666 0.6056833333333334 0.9166666666666664
0.1219666666666667 0.5609833333333332 0.4166666666666665
0.4166666666666666 0.5833333333333333 0.9166666666666664
0.4166666666666666 0.5833333333333333 0.4166666666666665
0.4166666666666667 0.8333333333333333 0.9166666666666664
0.4166666666666666 0.8333333333333331 0.4166666666666665
0.1666666666666667 0.5833333333333333 0.9166666666666664
0.1666666666666667 0.5833333333333333 0.4166666666666665
0.4166666666666666 0.5833333333333333 0.8333666666666665
0.4166666666666666 0.5833333333333333 0.4999666666666666
0.4166666666666667 0.8333333333333333 0.8333666666666665
0.4166666666666666 0.8333333333333331 0.4999666666666666
0.1666666666666667 0.5833333333333333 0.8333666666666665
0.1666666666666667 0.5833333333333333 0.4999666666666666
0.4166666666666666 0.5833333333333333 0.7499666666666666
0.4166666666666666 0.5833333333333333 0.5833666666666666
0.4166666666666667 0.8333333333333333 0.7499666666666666
0.4166666666666667 0.8333333333333331 0.5833666666666666
0.1666666666666667 0.5833333333333333 0.7499666666666666
0.1666666666666667 0.5833333333333333 0.5833666666666666
0.4166666666666666 0.5833333333333333 0.6666666666666665
0.4166666666666667 0.8333333333333333 0.6666666666666665
0.1666666666666667 0.5833333333333333 0.6666666666666665
0.7276499999999999 0.2723500000000000 0.2499999999999999
0.7723499999999999 0.2276500000000000 0.7499999999999999
0.7276499999999999 0.4552999999999999 0.2499999999999999
0.7723499999999998 0.0447000000000000 0.7499999999999999
0.5446999999999999 0.2723500000000000 0.2499999999999999
0.9552999999999998 0.2276500000000000 0.7499999999999999
0.7499999999999999 0.2500000000000000 0.2499999999999999
0.7499999999999999 0.2500000000000000 0.7499999999999999
0.7500000000000000 0.0000000000000000 0.2499999999999999
0.7499999999999999 0.0000000000000000 0.7499999999999999
0.4999999999999999 0.2500000000000000 0.2499999999999999
0.5000000000000000 0.2500000000000000 0.7499999999999999
0.7499999999999999 0.2500000000000001 0.1667000000000000
0.7499999999999999 0.2500000000000000 0.8332999999999998
0.7500000000000000 0.0000000000000000 0.1667000000000000
0.7499999999999999 0.0000000000000000 0.8332999999999998
0.4999999999999999 0.2500000000000001 0.1667000000000000
0.5000000000000000 0.2500000000000000 0.8332999999999998
0.7499999999999999 0.2500000000000000 0.0833000000000000
0.7499999999999999 0.2500000000000000 0.9166999999999998
0.7499999999999999 0.0000000000000000 0.0833000000000000
0.7499999999999999 0.0000000000000000 0.9166999999999998
0.4999999999999999 0.2500000000000000 0.0833000000000000
0.5000000000000000 0.2500000000000000 0.9166999999999998
0.7499999999999999 0.2500000000000000 0.0000000000000000
0.7499999999999999 0.0000000000000000 0.0000000000000000
0.4999999999999999 0.2500000000000000 0.0000000000000000
0.5609833333333332 0.4390166666666666 0.5833333333333331
0.6056833333333332 0.3943166666666666 0.0833333333333332
0.5609833333333332 0.1219666666666667 0.5833333333333331
0.6056833333333332 0.2113666666666666 0.0833333333333332
0.8780333333333331 0.4390166666666666 0.5833333333333331
0.7886333333333332 0.3943166666666666 0.0833333333333332
0.5833333333333333 0.4166666666666666 0.5833333333333331
0.5833333333333333 0.4166666666666666 0.0833333333333332
0.5833333333333331 0.1666666666666667 0.5833333333333331
0.5833333333333331 0.1666666666666667 0.0833333333333332
0.8333333333333331 0.4166666666666666 0.5833333333333331
0.8333333333333331 0.4166666666666666 0.0833333333333332
0.5833333333333331 0.4166666666666666 0.5000333333333332
0.5833333333333333 0.4166666666666666 0.1666333333333334
0.5833333333333330 0.1666666666666666 0.5000333333333332
0.5833333333333331 0.1666666666666667 0.1666333333333334
0.8333333333333331 0.4166666666666666 0.5000333333333332
0.8333333333333331 0.4166666666666666 0.1666333333333334
0.5833333333333331 0.4166666666666666 0.4166333333333332
0.5833333333333333 0.4166666666666666 0.2500333333333333
0.5833333333333330 0.1666666666666667 0.4166333333333332
0.5833333333333331 0.1666666666666667 0.2500333333333333
0.8333333333333331 0.4166666666666666 0.4166333333333332
0.8333333333333331 0.4166666666666666 0.2500333333333333
0.5833333333333333 0.4166666666666666 0.3333333333333333
0.5833333333333331 0.1666666666666666 0.3333333333333333
0.8333333333333333 0.4166666666666666 0.3333333333333333
0.8943166666666664 0.1056833333333334 0.9166666666666664
0.9390166666666664 0.0609833333333333 0.4166666666666665
0.8943166666666664 0.2886333333333333 0.9166666666666664
0.9390166666666663 0.3780333333333333 0.4166666666666665
0.7113666666666666 0.1056833333333334 0.9166666666666664
0.6219666666666664 0.0609833333333333 0.4166666666666665
0.9166666666666664 0.0833333333333332 0.9166666666666664
0.9166666666666664 0.0833333333333333 0.4166666666666665
0.9166666666666665 0.3333333333333333 0.9166666666666664
0.9166666666666664 0.3333333333333333 0.4166666666666665
0.6666666666666665 0.0833333333333332 0.9166666666666664
0.6666666666666664 0.0833333333333333 0.4166666666666665
0.9166666666666664 0.0833333333333333 0.8333666666666665
0.9166666666666664 0.0833333333333333 0.4999666666666666
0.9166666666666665 0.3333333333333333 0.8333666666666665
0.9166666666666664 0.3333333333333333 0.4999666666666666
0.6666666666666665 0.0833333333333333 0.8333666666666665
0.6666666666666665 0.0833333333333333 0.4999666666666666
0.9166666666666664 0.0833333333333332 0.7499666666666666
0.9166666666666664 0.0833333333333333 0.5833666666666666
0.9166666666666665 0.3333333333333333 0.7499666666666666
0.9166666666666664 0.3333333333333333 0.5833666666666666
0.6666666666666665 0.0833333333333332 0.7499666666666666
0.6666666666666665 0.0833333333333333 0.5833666666666666
0.9166666666666664 0.0833333333333332 0.6666666666666665
0.9166666666666664 0.3333333333333333 0.6666666666666665
0.6666666666666665 0.0833333333333332 0.6666666666666665
0.7276500000000000 0.7723500000000000 0.2499999999999999
0.7723499999999999 0.7276500000000000 0.7499999999999999
0.7276499999999999 0.9553000000000000 0.2499999999999999
0.7723499999999999 0.5447000000000000 0.7499999999999999
0.5447000000000000 0.7723500000000000 0.2499999999999999
0.9552999999999999 0.7276500000000000 0.7499999999999999
0.7499999999999999 0.7500000000000000 0.2499999999999999
0.7500000000000000 0.7500000000000000 0.7499999999999999
0.7499999999999999 0.4999999999999999 0.2499999999999999
0.7499999999999999 0.5000000000000000 0.7499999999999999
0.4999999999999999 0.7500000000000000 0.2499999999999999
0.5000000000000000 0.7500000000000000 0.7499999999999999
0.7499999999999999 0.7500000000000000 0.1667000000000000
0.7500000000000000 0.7500000000000000 0.8332999999999998
0.7499999999999999 0.5000000000000000 0.1667000000000000
0.7499999999999999 0.5000000000000000 0.8332999999999998
0.5000000000000000 0.7500000000000000 0.1667000000000000
0.5000000000000000 0.7500000000000000 0.8332999999999998
0.7499999999999999 0.7500000000000000 0.0833000000000000
0.7500000000000000 0.7500000000000000 0.9166999999999998
0.7499999999999999 0.5000000000000000 0.0833000000000000
0.7499999999999999 0.5000000000000000 0.9166999999999998
0.5000000000000000 0.7500000000000000 0.0833000000000000
0.5000000000000000 0.7500000000000000 0.9166999999999998
0.7499999999999999 0.7500000000000000 0.0000000000000000
0.7499999999999999 0.5000000000000000 0.0000000000000000
0.5000000000000000 0.7500000000000000 0.0000000000000000
0.5609833333333332 0.9390166666666664 0.5833333333333331
0.6056833333333334 0.8943166666666666 0.0833333333333332
0.5609833333333332 0.6219666666666666 0.5833333333333331
0.6056833333333332 0.7113666666666667 0.0833333333333332
0.8780333333333331 0.9390166666666664 0.5833333333333331
0.7886333333333332 0.8943166666666666 0.0833333333333332
0.5833333333333330 0.9166666666666664 0.5833333333333331
0.5833333333333331 0.9166666666666665 0.0833333333333332
0.5833333333333331 0.6666666666666666 0.5833333333333331
0.5833333333333331 0.6666666666666666 0.0833333333333332
0.8333333333333330 0.9166666666666664 0.5833333333333331
0.8333333333333330 0.9166666666666665 0.0833333333333332
0.5833333333333330 0.9166666666666664 0.5000333333333332
0.5833333333333331 0.9166666666666665 0.1666333333333334
0.5833333333333331 0.6666666666666666 0.5000333333333332
0.5833333333333331 0.6666666666666666 0.1666333333333334
0.8333333333333329 0.9166666666666664 0.5000333333333332
0.8333333333333330 0.9166666666666665 0.1666333333333334
0.5833333333333330 0.9166666666666664 0.4166333333333332
0.5833333333333331 0.9166666666666665 0.2500333333333333
0.5833333333333331 0.6666666666666666 0.4166333333333332
0.5833333333333331 0.6666666666666666 0.2500333333333333
0.8333333333333329 0.9166666666666664 0.4166333333333332
0.8333333333333330 0.9166666666666665 0.2500333333333333
0.5833333333333331 0.9166666666666665 0.3333333333333333
0.5833333333333333 0.6666666666666667 0.3333333333333333
0.8333333333333330 0.9166666666666665 0.3333333333333333
0.8943166666666665 0.6056833333333334 0.9166666666666664
0.9390166666666664 0.5609833333333332 0.4166666666666665
0.8943166666666666 0.7886333333333334 0.9166666666666664
0.9390166666666664 0.8780333333333332 0.4166666666666665
0.7113666666666666 0.6056833333333334 0.9166666666666664
0.6219666666666664 0.5609833333333332 0.4166666666666665
0.9166666666666666 0.5833333333333333 0.9166666666666664
0.9166666666666664 0.5833333333333333 0.4166666666666665
0.9166666666666666 0.8333333333333333 0.9166666666666664
0.9166666666666664 0.8333333333333331 0.4166666666666665
0.6666666666666666 0.5833333333333333 0.9166666666666664
0.6666666666666665 0.5833333333333333 0.4166666666666665
0.9166666666666665 0.5833333333333333 0.8333666666666665
0.9166666666666664 0.5833333333333333 0.4999666666666666
0.9166666666666666 0.8333333333333333 0.8333666666666665
0.9166666666666664 0.8333333333333331 0.4999666666666666
0.6666666666666666 0.5833333333333333 0.8333666666666665
0.6666666666666665 0.5833333333333333 0.4999666666666666
0.9166666666666665 0.5833333333333333 0.7499666666666666
0.9166666666666665 0.5833333333333333 0.5833666666666666
0.9166666666666666 0.8333333333333333 0.7499666666666666
0.9166666666666665 0.8333333333333331 0.5833666666666666
0.6666666666666666 0.5833333333333333 0.7499666666666666
0.6666666666666666 0.5833333333333333 0.5833666666666666
0.9166666666666665 0.5833333333333333 0.6666666666666665
0.9166666666666666 0.8333333333333333 0.6666666666666665
0.6666666666666666 0.5833333333333333 0.6666666666666665
