# framework
1.000000
 51.6640000000000015   0.0000000000000000         0.0000000000
  0.0000000000000032  51.6640000000000015         0.0000000000
  0.0000000000000032   0.0000000000000032        51.6640000000
Zn O C H 
256 832 1536 768 
Direct
0.1467000000000000 0.1033000000000000 0.1033000000000000
0.3967000000000000 0.1467000000000000 0.1033000000000000
0.3533000000000000 0.3967000000000000 0.1033000000000000
0.1033000000000000 0.3533000000000000 0.1033000000000000
0.1467000000000000 0.3967000000000000 0.3967000000000000
0.1033000000000000 0.1467000000000000 0.3967000000000000
0.3533000000000000 0.1033000000000000 0.3967000000000000
0.3967000000000000 0.3533000000000000 0.3967000000000000
0.1033000000000000 0.1467000000000000 0.1033000000000000
0.3533000000000000 0.1033000000000000 0.1033000000000000
0.3967000000000000 0.3533000000000000 0.1033000000000000
0.1467000000000000 0.3967000000000000 0.1033000000000000
0.1033000000000000 0.3533000000000000 0.3967000000000000
0.1467000000000000 0.1033000000000000 0.3967000000000000
0.3967000000000000 0.1467000000000000 0.3967000000000000
0.3533000000000000 0.3967000000000000 0.3967000000000000
0.1033000000000000 0.1033000000000000 0.1467000000000000
0.1033000000000000 0.3967000000000000 0.3533000000000000
0.1033000000000000 0.1033000000000000 0.3533000000000000
0.3967000000000000 0.1033000000000000 0.3533000000000000
0.3967000000000000 0.3967000000000000 0.3533000000000000
0.3967000000000000 0.3967000000000000 0.1467000000000000
0.1033000000000000 0.3967000000000000 0.1467000000000000
0.3967000000000000 0.1033000000000000 0.1467000000000000
0.1467000000000000 0.3533000000000000 0.3533000000000000
0.3533000000000000 0.1467000000000000 0.3533000000000000
0.1467000000000000 0.1467000000000000 0.1467000000000000
0.3533000000000000 0.3533000000000000 0.1467000000000000
0.3533000000000000 0.3533000000000000 0.3533000000000000
0.1467000000000000 0.1467000000000000 0.3533000000000000
0.1467000000000000 0.3533000000000000 0.1467000000000000
0.3533000000000000 0.1467000000000000 0.1467000000000000
0.1467000000000000 0.1033000000000000 0.6032999999999999
0.3967000000000000 0.1467000000000000 0.6032999999999999
0.3533000000000000 0.3967000000000000 0.6032999999999999
0.1033000000000000 0.3533000000000000 0.6032999999999999
0.1467000000000000 0.3967000000000000 0.8967000000000001
0.1033000000000000 0.1467000000000000 0.8967000000000001
0.3533000000000000 0.1033000000000000 0.8967000000000001
0.3967000000000000 0.3533000000000000 0.8967000000000001
0.1033000000000000 0.1467000000000000 0.6032999999999999
0.3533000000000000 0.1033000000000000 0.6032999999999999
0.3967000000000000 0.3533000000000000 0.6032999999999999
0.1467000000000000 0.3967000000000000 0.6032999999999999
0.1033000000000000 0.3533000000000000 0.8967000000000001
0.1467000000000000 0.1033000000000000 0.8967000000000001
0.3967000000000000 0.1467000000000000 0.8967000000000001
0.3533000000000000 0.3967000000000000 0.8967000000000001
0.1033000000000000 0.1033000000000000 0.6466999999999999
0.1033000000000000 0.3967000000000000 0.8532999999999999
0.1033000000000000 0.1033000000000000 0.8532999999999999
0.3967000000000000 0.1033000000000000 0.8532999999999999
0.3967000000000000 0.3967000000000000 0.8532999999999999
0.3967000000000000 0.3967000000000000 0.6466999999999999
0.1033000000000000 0.3967000000000000 0.6466999999999999
0.3967000000000000 0.1033000000000000 0.6466999999999999
0.1467000000000000 0.3533000000000000 0.8532999999999999
0.3533000000000000 0.1467000000000000 0.8532999999999999
0.1467000000000000 0.1467000000000000 0.6466999999999999
0.3533000000000000 0.3533000000000000 0.6466999999999999
0.3533000000000000 0.3533000000000000 0.8532999999999999
0.1467000000000000 0.1467000000000000 0.8532999999999999
0.1467000000000000 0.3533000000000000 0.6466999999999999
0.3533000000000000 0.1467000000000000 0.6466999999999999
0.1467000000000000 0.6032999999999999 0.1033000000000000
0.3967000000000000 0.6466999999999999 0.1033000000000000
0.3533000000000000 0.8967000000000001 0.1033000000000000
0.1033000000000000 0.8532999999999999 0.1033000000000000
0.1467000000000000 0.8967000000000001 0.3967000000000000
0.1033000000000000 0.6466999999999999 0.3967000000000000
0.3533000000000000 0.6032999999999999 0.3967000000000000
0.3967000000000000 0.8532999999999999 0.3967000000000000
0.1033000000000000 0.6466999999999999 0.1033000000000000
0.3533000000000000 0.6032999999999999 0.1033000000000000
0.3967000000000000 0.8532999999999999 0.1033000000000000
0.1467000000000000 0.8967000000000001 0.1033000000000000
0.1033000000000000 0.8532999999999999 0.3967000000000000
0.1467000000000000 0.6032999999999999 0.3967000000000000
0.3967000000000000 0.6466999999999999 0.3967000000000000
0.3533000000000000 0.8967000000000001 0.3967000000000000
0.1033000000000000 0.6032999999999999 0.1467000000000000
0.1033000000000000 0.8967000000000001 0.3533000000000000
0.1033000000000000 0.6032999999999999 0.3533000000000000
0.3967000000000000 0.6032999999999999 0.3533000000000000
0.3967000000000000 0.8967000000000001 0.3533000000000000
0.3967000000000000 0.8967000000000001 0.1467000000000000
0.1033000000000000 0.8967000000000001 0.1467000000000000
0.3967000000000000 0.6032999999999999 0.1467000000000000
0.1467000000000000 0.8532999999999999 0.3533000000000000
0.3533000000000000 0.6466999999999999 0.3533000000000000
0.1467000000000000 0.6466999999999999 0.1467000000000000
0.3533000000000000 0.8532999999999999 0.1467000000000000
0.3533000000000000 0.8532999999999999 0.3533000000000000
0.1467000000000000 0.6466999999999999 0.3533000000000000
0.1467000000000000 0.8532999999999999 0.1467000000000000
0.3533000000000000 0.6466999999999999 0.1467000000000000
0.1467000000000000 0.6032999999999999 0.6032999999999999
0.3967000000000000 0.6466999999999999 0.6032999999999999
0.3533000000000000 0.8967000000000001 0.6032999999999999
0.1033000000000000 0.8532999999999999 0.6032999999999999
0.1467000000000000 0.8967000000000001 0.8967000000000001
0.1033000000000000 0.6466999999999999 0.8967000000000001
0.3533000000000000 0.6032999999999999 0.8967000000000001
0.3967000000000000 0.8532999999999999 0.8967000000000001
0.1033000000000000 0.6466999999999999 0.6032999999999999
0.3533000000000000 0.6032999999999999 0.6032999999999999
0.3967000000000000 0.8532999999999999 0.6032999999999999
0.1467000000000000 0.8967000000000001 0.6032999999999999
0.1033000000000000 0.8532999999999999 0.8967000000000001
0.1467000000000000 0.6032999999999999 0.8967000000000001
0.3967000000000000 0.6466999999999999 0.8967000000000001
0.3533000000000000 0.8967000000000001 0.8967000000000001
0.1033000000000000 0.6032999999999999 0.6466999999999999
0.1033000000000000 0.8967000000000001 0.8532999999999999
0.1033000000000000 0.6032999999999999 0.8532999999999999
0.3967000000000000 0.6032999999999999 0.8532999999999999
0.3967000000000000 0.8967000000000001 0.8532999999999999
0.3967000000000000 0.8967000000000001 0.6466999999999999
0.1033000000000000 0.8967000000000001 0.6466999999999999
0.3967000000000000 0.6032999999999999 0.6466999999999999
0.1467000000000000 0.8532999999999999 0.8532999999999999
0.3533000000000000 0.6466999999999999 0.8532999999999999
0.1467000000000000 0.6466999999999999 0.6466999999999999
0.3533000000000000 0.8532999999999999 0.6466999999999999
0.3533000000000000 0.8532999999999999 0.8532999999999999
0.1467000000000000 0.6466999999999999 0.8532999999999999
0.1467000000000000 0.8532999999999999 0.6466999999999999
0.3533000000000000 0.6466999999999999 0.6466999999999999
0.6466999999999999 0.1033000000000000 0.1033000000000000
0.8967000000000001 0.1467000000000000 0.1033000000000000
0.8532999999999999 0.3967000000000000 0.1033000000000000
0.6032999999999999 0.3533000000000000 0.1033000000000000
0.6466999999999999 0.3967000000000000 0.3967000000000000
0.6032999999999999 0.1467000000000000 0.3967000000000000
0.8532999999999999 0.1033000000000000 0.3967000000000000
0.8967000000000001 0.3533000000000000 0.3967000000000000
0.6032999999999999 0.1467000000000000 0.1033000000000000
0.8532999999999999 0.1033000000000000 0.1033000000000000
0.8967000000000001 0.3533000000000000 0.1033000000000000
0.6466999999999999 0.3967000000000000 0.1033000000000000
0.6032999999999999 0.3533000000000000 0.3967000000000000
0.6466999999999999 0.1033000000000000 0.3967000000000000
0.8967000000000001 0.1467000000000000 0.3967000000000000
0.8532999999999999 0.3967000000000000 0.3967000000000000
0.6032999999999999 0.1033000000000000 0.1467000000000000
0.6032999999999999 0.3967000000000000 0.3533000000000000
0.6032999999999999 0.1033000000000000 0.3533000000000000
0.8967000000000001 0.1033000000000000 0.3533000000000000
0.8967000000000001 0.3967000000000000 0.3533000000000000
0.8967000000000001 0.3967000000000000 0.1467000000000000
0.6032999999999999 0.3967000000000000 0.1467000000000000
0.8967000000000001 0.1033000000000000 0.1467000000000000
0.6466999999999999 0.3533000000000000 0.3533000000000000
0.8532999999999999 0.1467000000000000 0.3533000000000000
0.6466999999999999 0.1467000000000000 0.1467000000000000
0.8532999999999999 0.3533000000000000 0.1467000000000000
0.8532999999999999 0.3533000000000000 0.3533000000000000
0.6466999999999999 0.1467000000000000 0.3533000000000000
0.6466999999999999 0.3533000000000000 0.1467000000000000
0.8532999999999999 0.1467000000000000 0.1467000000000000
0.6466999999999999 0.1033000000000000 0.6032999999999999
0.8967000000000001 0.1467000000000000 0.6032999999999999
0.8532999999999999 0.3967000000000000 0.6032999999999999
0.6032999999999999 0.3533000000000000 0.6032999999999999
0.6466999999999999 0.3967000000000000 0.8967000000000001
0.6032999999999999 0.1467000000000000 0.8967000000000001
0.8532999999999999 0.1033000000000000 0.8967000000000001
0.8967000000000001 0.3533000000000000 0.8967000000000001
0.6032999999999999 0.1467000000000000 0.6032999999999999
0.8532999999999999 0.1033000000000000 0.6032999999999999
0.8967000000000001 0.3533000000000000 0.6032999999999999
0.6466999999999999 0.3967000000000000 0.6032999999999999
0.6032999999999999 0.3533000000000000 0.8967000000000001
0.6466999999999999 0.1033000000000000 0.8967000000000001
0.8967000000000001 0.1467000000000000 0.8967000000000001
0.8532999999999999 0.3967000000000000 0.8967000000000001
0.6032999999999999 0.1033000000000000 0.6466999999999999
0.6032999999999999 0.3967000000000000 0.8532999999999999
0.6032999999999999 0.1033000000000000 0.8532999999999999
0.8967000000000001 0.1033000000000000 0.8532999999999999
0.8967000000000001 0.3967000000000000 0.8532999999999999
0.8967000000000001 0.3967000000000000 0.6466999999999999
0.6032999999999999 0.3967000000000000 0.6466999999999999
0.8967000000000001 0.1033000000000000 0.6466999999999999
0.6466999999999999 0.3533000000000000 0.8532999999999999
0.8532999999999999 0.1467000000000000 0.8532999999999999
0.6466999999999999 0.1467000000000000 0.6466999999999999
0.8532999999999999 0.3533000000000000 0.6466999999999999
0.8532999999999999 0.3533000000000000 0.8532999999999999
0.6466999999999999 0.1467000000000000 0.8532999999999999
0.6466999999999999 0.3533000000000000 0.6466999999999999
0.8532999999999999 0.1467000000000000 0.6466999999999999
0.6466999999999999 0.6032999999999999 0.1033000000000000
0.8967000000000001 0.6466999999999999 0.1033000000000000
0.8532999999999999 0.8967000000000001 0.1033000000000000
0.6032999999999999 0.8532999999999999 0.1033000000000000
0.6466999999999999 0.8967000000000001 0.3967000000000000
0.6032999999999999 0.6466999999999999 0.3967000000000000
0.8532999999999999 0.6032999999999999 0.3967000000000000
0.8967000000000001 0.8532999999999999 0.3967000000000000
0.6032999999999999 0.6466999999999999 0.1033000000000000
0.8532999999999999 0.6032999999999999 0.1033000000000000
0.8967000000000001 0.8532999999999999 0.1033000000000000
0.6466999999999999 0.8967000000000001 0.1033000000000000
0.6032999999999999 0.8532999999999999 0.3967000000000000
0.6466999999999999 0.6032999999999999 0.3967000000000000
0.8967000000000001 0.6466999999999999 0.3967000000000000
0.8532999999999999 0.8967000000000001 0.3967000000000000
0.6032999999999999 0.6032999999999999 0.1467000000000000
0.6032999999999999 0.8967000000000001 0.3533000000000000
0.6032999999999999 0.6032999999999999 0.3533000000000000
0.8967000000000001 0.6032999999999999 0.3533000000000000
0.8967000000000001 0.8967000000000001 0.3533000000000000
0.8967000000000001 0.8967000000000001 0.1467000000000000
0.6032999999999999 0.8967000000000001 0.1467000000000000
0.8967000000000001 0.6032999999999999 0.1467000000000000
0.6466999999999999 0.8532999999999999 0.3533000000000000
0.8532999999999999 0.6466999999999999 0.3533000000000000
0.6466999999999999 0.6466999999999999 0.1467000000000000
0.8532999999999999 0.8532999999999999 0.1467000000000000
0.8532999999999999 0.8532999999999999 0.3533000000000000
0.6466999999999999 0.6466999999999999 0.3533000000000000
0.6466999999999999 0.8532999999999999 0.1467000000000000
0.8532999999999999 0.6466999999999999 0.1467000000000000
0.6466999999999999 0.6032999999999999 0.6032999999999999
0.8967000000000001 0.6466999999999999 0.6032999999999999
0.8532999999999999 0.8967000000000001 0.6032999999999999
0.6033000000000001 0.8532999999999999 0.6032999999999999
0.6466999999999999 0.8967000000000001 0.8967000000000001
0.6033000000000001 0.6466999999999999 0.8967000000000001
0.8532999999999999 0.6032999999999999 0.8967000000000001
0.8967000000000001 0.8532999999999999 0.8967000000000001
0.6033000000000001 0.6466999999999999 0.6032999999999999
0.8532999999999999 0.6032999999999999 0.6032999999999999
0.8967000000000001 0.8532999999999999 0.6032999999999999
0.6466999999999999 0.8967000000000001 0.6032999999999999
0.6033000000000001 0.8532999999999999 0.8967000000000001
0.6466999999999999 0.6032999999999999 0.8967000000000001
0.8967000000000001 0.6466999999999999 0.8967000000000001
0.8532999999999999 0.8967000000000001 0.8967000000000001
0.6033000000000001 0.6032999999999999 0.6466999999999999
0.6033000000000001 0.8967000000000001 0.8532999999999999
0.6033000000000001 0.6032999999999999 0.8532999999999999
0.8967000000000001 0.6032999999999999 0.8532999999999999
0.8967000000000001 0.8967000000000001 0.8532999999999999
0.8967000000000001 0.8967000000000001 0.6466999999999999
0.6033000000000001 0.8967000000000001 0.6466999999999999
0.8967000000000001 0.6032999999999999 0.6466999999999999
0.6466999999999999 0.8532999999999999 0.8532999999999999
0.8532999999999999 0.6466999999999999 0.8532999999999999
0.6466999999999999 0.6466999999999999 0.6466999999999999
0.8532999999999999 0.8532999999999999 0.6466999999999999
0.8532999999999999 0.8532999999999999 0.8532999999999999
0.6466999999999999 0.6466999999999999 0.8532999999999999
0.6466999999999999 0.8532999999999999 0.6466999999999999
0.8532999999999999 0.6466999999999999 0.6466999999999999
0.1250000000000000 0.1250000000000000 0.1250000000000000
0.1409500000000000 0.1090500000000000 0.0670000000000000
0.3750000000000000 0.1250000000000000 0.1250000000000000
0.3909500000000000 0.1409500000000000 0.0670000000000000
0.3750000000000000 0.3750000000000000 0.1250000000000000
0.3590500000000000 0.3909500000000000 0.0670000000000000
0.1250000000000000 0.3750000000000000 0.1250000000000000
0.1090500000000000 0.3590500000000000 0.0670000000000000
0.1250000000000000 0.3750000000000000 0.3750000000000000
0.1409500000000000 0.3909500000000000 0.4330000000000000
0.1250000000000000 0.1250000000000000 0.3750000000000000
0.1090500000000000 0.1409500000000000 0.4330000000000000
0.3750000000000000 0.1250000000000000 0.3750000000000000
0.3590500000000000 0.1090500000000000 0.4330000000000000
0.3750000000000000 0.3750000000000000 0.3750000000000000
0.3909500000000000 0.3590500000000000 0.4330000000000000
0.0670000000000000 0.1409500000000000 0.1090500000000000
0.3590500000000000 0.0670000000000000 0.1090500000000000
0.4330000000000000 0.3590500000000000 0.1090500000000000
0.1409500000000000 0.4330000000000000 0.1090500000000000
0.0670000000000000 0.3590500000000000 0.3909500000000000
0.1409500000000000 0.0670000000000000 0.3909500000000000
0.4330000000000000 0.1409500000000000 0.3909500000000000
0.3590500000000000 0.4330000000000000 0.3909500000000000
0.1090500000000000 0.0670000000000000 0.1409500000000000
0.1090500000000000 0.4330000000000000 0.3590500000000000
0.0670000000000000 0.1090500000000000 0.3590500000000000
0.3909500000000000 0.0670000000000000 0.3590500000000000
0.4330000000000000 0.3909500000000000 0.3590500000000000
0.3909500000000000 0.4330000000000000 0.1409500000000000
0.0670000000000000 0.3909500000000000 0.1409500000000000
0.4330000000000000 0.1090500000000000 0.1409500000000000
0.3590500000000000 0.3909500000000000 0.4330000000000000
0.1090500000000000 0.3590500000000000 0.4330000000000000
0.1409500000000000 0.1090500000000000 0.4330000000000000
0.3909500000000000 0.1409500000000000 0.4330000000000000
0.3590500000000000 0.1090500000000000 0.0670000000000000
0.3909500000000000 0.3590500000000000 0.0670000000000000
0.1409500000000000 0.3909500000000000 0.0670000000000000
0.1090500000000000 0.1409500000000000 0.0670000000000000
0.4330000000000000 0.3590500000000000 0.3909500000000000
0.1409500000000000 0.4330000000000000 0.3909500000000000
0.0670000000000000 0.1409500000000000 0.3909500000000000
0.3590500000000000 0.0670000000000000 0.3909500000000000
0.4330000000000000 0.1409500000000000 0.1090500000000000
0.3590500000000000 0.4330000000000000 0.1090500000000000
0.0670000000000000 0.3590500000000000 0.1090500000000000
0.1409500000000000 0.0670000000000000 0.1090500000000000
0.3909500000000000 0.4330000000000000 0.3590500000000000
0.3909500000000000 0.0670000000000000 0.1409500000000000
0.4330000000000000 0.3909500000000000 0.1409500000000000
0.1090500000000000 0.4330000000000000 0.1409500000000000
0.0670000000000000 0.1090500000000000 0.1409500000000000
0.1090500000000000 0.0670000000000000 0.3590500000000000
0.4330000000000000 0.1090500000000000 0.3590500000000000
0.0670000000000000 0.3909500000000000 0.3590500000000000
0.1409500000000000 0.3590500000000000 0.3170000000000000
0.3909500000000000 0.3909500000000000 0.3170000000000000
0.3590500000000000 0.1409500000000000 0.3170000000000000
0.1090500000000000 0.1090500000000000 0.3170000000000000
0.1409500000000000 0.1409500000000000 0.1830000000000000
0.1090500000000000 0.3909500000000000 0.1830000000000000
0.3590500000000000 0.3590500000000000 0.1830000000000000
0.3909500000000000 0.1090500000000000 0.1830000000000000
0.3590500000000000 0.3170000000000000 0.3590500000000000
0.1409500000000000 0.1830000000000000 0.3590500000000000
0.1409500000000000 0.3170000000000000 0.1409500000000000
0.3590500000000000 0.1830000000000000 0.1409500000000000
0.1090500000000000 0.3170000000000000 0.3909500000000000
0.1090500000000000 0.1830000000000000 0.1090500000000000
0.3909500000000000 0.3170000000000000 0.1090500000000000
0.3909500000000000 0.1830000000000000 0.3909500000000000
0.3590500000000000 0.1409500000000000 0.1830000000000000
0.1090500000000000 0.1090500000000000 0.1830000000000000
0.1409500000000000 0.3590500000000000 0.1830000000000000
0.3909500000000000 0.3909500000000000 0.1830000000000000
0.3590500000000000 0.3590500000000000 0.3170000000000000
0.3909500000000000 0.1090500000000000 0.3170000000000000
0.1409500000000000 0.1409500000000000 0.3170000000000000
0.1090500000000000 0.3909500000000000 0.3170000000000000
0.1409500000000000 0.1830000000000000 0.1409500000000000
0.3590500000000000 0.3170000000000000 0.1409500000000000
0.3590500000000000 0.1830000000000000 0.3590500000000000
0.1409500000000000 0.3170000000000000 0.3590500000000000
0.3909500000000000 0.1830000000000000 0.1090500000000000
0.3909500000000000 0.3170000000000000 0.3909500000000000
0.1090500000000000 0.1830000000000000 0.3909500000000000
0.1090500000000000 0.3170000000000000 0.1090500000000000
0.3170000000000000 0.1409500000000000 0.3590500000000000
0.1830000000000000 0.3590500000000000 0.3590500000000000
0.3170000000000000 0.3590500000000000 0.1409500000000000
0.1830000000000000 0.1409500000000000 0.1409500000000000
0.3170000000000000 0.1090500000000000 0.1090500000000000
0.1830000000000000 0.3909500000000000 0.1090500000000000
0.3170000000000000 0.3909500000000000 0.3909500000000000
0.1830000000000000 0.1090500000000000 0.3909500000000000
0.1830000000000000 0.3590500000000000 0.1409500000000000
0.3170000000000000 0.1409500000000000 0.1409500000000000
0.1830000000000000 0.1409500000000000 0.3590500000000000
0.3170000000000000 0.3590500000000000 0.3590500000000000
0.1830000000000000 0.3909500000000000 0.3909500000000000
0.3170000000000000 0.1090500000000000 0.3909500000000000
0.1830000000000000 0.1090500000000000 0.1090500000000000
0.3170000000000000 0.3909500000000000 0.1090500000000000
0.1250000000000000 0.1250000000000000 0.6250000000000000
0.1409500000000000 0.1090500000000000 0.5669999999999999
0.3750000000000001 0.1250000000000000 0.6250000000000000
0.3909500000000000 0.1409500000000000 0.5669999999999999
0.3750000000000001 0.3750000000000001 0.6250000000000000
0.3590500000000000 0.3909500000000000 0.5669999999999999
0.1250000000000000 0.3750000000000001 0.6250000000000000
0.1090500000000000 0.3590500000000000 0.5669999999999999
0.1250000000000000 0.3750000000000001 0.8750000000000000
0.1409500000000000 0.3909500000000000 0.9330000000000001
0.1250000000000000 0.1250000000000000 0.8750000000000000
0.1090500000000000 0.1409500000000000 0.9330000000000001
0.3750000000000001 0.1250000000000000 0.8750000000000000
0.3590500000000000 0.1090500000000000 0.9330000000000001
0.3750000000000001 0.3750000000000001 0.8750000000000000
0.3909500000000000 0.3590500000000000 0.9330000000000001
0.0670000000000000 0.1409500000000000 0.6090500000000000
0.3590500000000000 0.0670000000000000 0.6090500000000000
0.4330000000000000 0.3590500000000000 0.6090500000000000
0.1409500000000000 0.4330000000000000 0.6090500000000000
0.0670000000000000 0.3590500000000000 0.8909500000000000
0.1409500000000000 0.0670000000000000 0.8909500000000000
0.4330000000000000 0.1409500000000000 0.8909500000000000
0.3590500000000000 0.4330000000000000 0.8909500000000000
0.1090500000000000 0.0670000000000000 0.6409500000000000
0.1090500000000000 0.4330000000000000 0.8590499999999999
0.0670000000000000 0.1090500000000000 0.8590499999999999
0.3909500000000000 0.0670000000000000 0.8590499999999999
0.4330000000000000 0.3909500000000000 0.8590499999999999
0.3909500000000000 0.4330000000000000 0.6409500000000000
0.0670000000000000 0.3909500000000000 0.6409500000000000
0.4330000000000000 0.1090500000000000 0.6409500000000000
0.3590500000000000 0.3909500000000000 0.9330000000000001
0.1090500000000000 0.3590500000000000 0.9330000000000001
0.1409500000000000 0.1090500000000000 0.9330000000000001
0.3909500000000000 0.1409500000000000 0.9330000000000001
0.3590500000000000 0.1090500000000000 0.5669999999999999
0.3909500000000000 0.3590500000000000 0.5669999999999999
0.1409500000000000 0.3909500000000000 0.5669999999999999
0.1090500000000000 0.1409500000000000 0.5669999999999999
0.4330000000000000 0.3590500000000000 0.8909500000000000
0.1409500000000000 0.4330000000000000 0.8909500000000000
0.0670000000000000 0.1409500000000000 0.8909500000000000
0.3590500000000000 0.0670000000000000 0.8909500000000000
0.4330000000000000 0.1409500000000000 0.6090500000000000
0.3590500000000000 0.4330000000000000 0.6090500000000000
0.0670000000000000 0.3590500000000000 0.6090500000000000
0.1409500000000000 0.0670000000000000 0.6090500000000000
0.3909500000000000 0.4330000000000000 0.8590499999999999
0.3909500000000000 0.0670000000000000 0.6409500000000000
0.4330000000000000 0.3909500000000000 0.6409500000000000
0.1090500000000000 0.4330000000000000 0.6409500000000000
0.0670000000000000 0.1090500000000000 0.6409500000000000
0.1090500000000000 0.0670000000000000 0.8590499999999999
0.4330000000000000 0.1090500000000000 0.8590499999999999
0.0670000000000000 0.3909500000000000 0.8590499999999999
0.1409500000000000 0.3590500000000000 0.8169999999999999
0.3909500000000000 0.3909500000000000 0.8169999999999999
0.3590500000000000 0.1409500000000000 0.8169999999999999
0.1090500000000000 0.1090500000000000 0.8169999999999999
0.1409500000000000 0.1409500000000000 0.6830000000000001
0.1090500000000000 0.3909500000000000 0.6830000000000001
0.3590500000000000 0.3590500000000000 0.6830000000000001
0.3909500000000000 0.1090500000000000 0.6830000000000001
0.3590500000000000 0.3170000000000000 0.8590499999999999
0.1409500000000000 0.1830000000000000 0.8590499999999999
0.1409500000000000 0.3170000000000000 0.6409500000000000
0.3590500000000000 0.1830000000000000 0.6409500000000000
0.1090500000000000 0.3170000000000000 0.8909500000000000
0.1090500000000000 0.1830000000000000 0.6090500000000000
0.3909500000000000 0.3170000000000000 0.6090500000000000
0.3909500000000000 0.1830000000000000 0.8909500000000000
0.3590500000000000 0.1409500000000000 0.6830000000000001
0.1090500000000000 0.1090500000000000 0.6830000000000001
0.1409500000000000 0.3590500000000000 0.6830000000000001
0.3909500000000000 0.3909500000000000 0.6830000000000001
0.3590500000000000 0.3590500000000000 0.8169999999999999
0.3909500000000000 0.1090500000000000 0.8169999999999999
0.1409500000000000 0.1409500000000000 0.8169999999999999
0.1090500000000000 0.3909500000000000 0.8169999999999999
0.1409500000000000 0.1830000000000000 0.6409500000000000
0.3590500000000000 0.3170000000000000 0.6409500000000000
0.3590500000000000 0.1830000000000000 0.8590499999999999
0.1409500000000000 0.3170000000000000 0.8590499999999999
0.3909500000000000 0.1830000000000000 0.6090500000000000
0.3909500000000000 0.3170000000000000 0.8909500000000000
0.1090500000000000 0.1830000000000000 0.8909500000000000
0.1090500000000000 0.3170000000000000 0.6090500000000000
0.3170000000000000 0.1409500000000000 0.8590499999999999
0.1830000000000000 0.3590500000000000 0.8590499999999999
0.3170000000000000 0.3590500000000000 0.6409500000000000
0.1830000000000000 0.1409500000000000 0.6409500000000000
0.3170000000000000 0.1090500000000000 0.6090500000000000
0.1830000000000000 0.3909500000000000 0.6090500000000000
0.3170000000000000 0.3909500000000000 0.8909500000000000
0.1830000000000000 0.1090500000000000 0.8909500000000000
0.1830000000000000 0.3590500000000000 0.6409500000000000
0.3170000000000000 0.1409500000000000 0.6409500000000000
0.1830000000000000 0.1409500000000000 0.8590499999999999
0.3170000000000000 0.3590500000000000 0.8590499999999999
0.1830000000000000 0.3909500000000000 0.8909500000000000
0.3170000000000000 0.1090500000000000 0.8909500000000000
0.1830000000000000 0.1090500000000000 0.6090500000000000
0.3170000000000000 0.3909500000000000 0.6090500000000000
0.1250000000000000 0.6250000000000000 0.1250000000000000
0.1409500000000000 0.6090500000000000 0.0670000000000000
0.3750000000000001 0.6250000000000000 0.1250000000000000
0.3909500000000000 0.6409500000000000 0.0670000000000000
0.3750000000000001 0.8750000000000000 0.1250000000000000
0.3590500000000000 0.8909500000000000 0.0670000000000000
0.1250000000000000 0.8750000000000000 0.1250000000000000
0.1090500000000000 0.8590499999999999 0.0670000000000000
0.1250000000000000 0.8750000000000000 0.3750000000000000
0.1409500000000000 0.8909500000000000 0.4330000000000000
0.1250000000000000 0.6250000000000000 0.3750000000000000
0.1090500000000000 0.6409500000000000 0.4330000000000000
0.3750000000000001 0.6250000000000000 0.3750000000000000
0.3590500000000000 0.6090500000000000 0.4330000000000000
0.3750000000000001 0.8750000000000000 0.3750000000000000
0.3909500000000000 0.8590499999999999 0.4330000000000000
0.0670000000000000 0.6409500000000000 0.1090500000000000
0.3590500000000000 0.5669999999999999 0.1090500000000000
0.4330000000000000 0.8590499999999999 0.1090500000000000
0.1409500000000000 0.9330000000000001 0.1090500000000000
0.0670000000000000 0.8590499999999999 0.3909500000000000
0.1409500000000000 0.5669999999999999 0.3909500000000000
0.4330000000000000 0.6409500000000000 0.3909500000000000
0.3590500000000000 0.9330000000000001 0.3909500000000000
0.1090500000000000 0.5669999999999999 0.1409500000000000
0.1090500000000000 0.9330000000000001 0.3590500000000000
0.0670000000000000 0.6090500000000000 0.3590500000000000
0.3909500000000000 0.5669999999999999 0.3590500000000000
0.4330000000000000 0.8909500000000000 0.3590500000000000
0.3909500000000000 0.9330000000000001 0.1409500000000000
0.0670000000000000 0.8909500000000000 0.1409500000000000
0.4330000000000000 0.6090500000000000 0.1409500000000000
0.3590500000000000 0.8909500000000000 0.4330000000000000
0.1090500000000000 0.8590499999999999 0.4330000000000000
0.1409500000000000 0.6090500000000000 0.4330000000000000
0.3909500000000000 0.6409500000000000 0.4330000000000000
0.3590500000000000 0.6090500000000000 0.0670000000000000
0.3909500000000000 0.8590499999999999 0.0670000000000000
0.1409500000000000 0.8909500000000000 0.0670000000000000
0.1090500000000000 0.6409500000000000 0.0670000000000000
0.4330000000000000 0.8590499999999999 0.3909500000000000
0.1409500000000000 0.9330000000000001 0.3909500000000000
0.0670000000000000 0.6409500000000000 0.3909500000000000
0.3590500000000000 0.5669999999999999 0.3909500000000000
0.4330000000000000 0.6409500000000000 0.1090500000000000
0.3590500000000000 0.9330000000000001 0.1090500000000000
0.0670000000000000 0.8590499999999999 0.1090500000000000
0.1409500000000000 0.5669999999999999 0.1090500000000000
0.3909500000000000 0.9330000000000001 0.3590500000000000
0.3909500000000000 0.5669999999999999 0.1409500000000000
0.4330000000000000 0.8909500000000000 0.1409500000000000
0.1090500000000000 0.9330000000000001 0.1409500000000000
0.0670000000000000 0.6090500000000000 0.1409500000000000
0.1090500000000000 0.5669999999999999 0.3590500000000000
0.4330000000000000 0.6090500000000000 0.3590500000000000
0.0670000000000000 0.8909500000000000 0.3590500000000000
0.1409500000000000 0.8590499999999999 0.3170000000000000
0.3909500000000000 0.8909500000000000 0.3170000000000000
0.3590500000000000 0.6409500000000000 0.3170000000000000
0.1090500000000000 0.6090500000000000 0.3170000000000000
0.1409500000000000 0.6409500000000000 0.1830000000000000
0.1090500000000000 0.8909500000000000 0.1830000000000000
0.3590500000000000 0.8590499999999999 0.1830000000000000
0.3909500000000000 0.6090500000000000 0.1830000000000000
0.3590500000000000 0.8169999999999999 0.3590500000000000
0.1409500000000000 0.6830000000000001 0.3590500000000000
0.1409500000000000 0.8169999999999999 0.1409500000000000
0.3590500000000000 0.6830000000000001 0.1409500000000000
0.1090500000000000 0.8169999999999999 0.3909500000000000
0.1090500000000000 0.6830000000000001 0.1090500000000000
0.3909500000000000 0.8169999999999999 0.1090500000000000
0.3909500000000000 0.6830000000000001 0.3909500000000000
0.3590500000000000 0.6409500000000000 0.1830000000000000
0.1090500000000000 0.6090500000000000 0.1830000000000000
0.1409500000000000 0.8590499999999999 0.1830000000000000
0.3909500000000000 0.8909500000000000 0.1830000000000000
0.3590500000000000 0.8590499999999999 0.3170000000000000
0.3909500000000000 0.6090500000000000 0.3170000000000000
0.1409500000000000 0.6409500000000000 0.3170000000000000
0.1090500000000000 0.8909500000000000 0.3170000000000000
0.1409500000000000 0.6830000000000001 0.1409500000000000
0.3590500000000000 0.8169999999999999 0.1409500000000000
0.3590500000000000 0.6830000000000001 0.3590500000000000
0.1409500000000000 0.8169999999999999 0.3590500000000000
0.3909500000000000 0.6830000000000001 0.1090500000000000
0.3909500000000000 0.8169999999999999 0.3909500000000000
0.1090500000000000 0.6830000000000001 0.3909500000000000
0.1090500000000000 0.8169999999999999 0.1090500000000000
0.3170000000000000 0.6409500000000000 0.3590500000000000
0.1830000000000000 0.8590499999999999 0.3590500000000000
0.3170000000000000 0.8590499999999999 0.1409500000000000
0.1830000000000000 0.6409500000000000 0.1409500000000000
0.3170000000000000 0.6090500000000000 0.1090500000000000
0.1830000000000000 0.8909500000000000 0.1090500000000000
0.3170000000000000 0.8909500000000000 0.3909500000000000
0.1830000000000000 0.6090500000000000 0.3909500000000000
0.1830000000000000 0.8590499999999999 0.1409500000000000
0.3170000000000000 0.6409500000000000 0.1409500000000000
0.1830000000000000 0.6409500000000000 0.3590500000000000
0.3170000000000000 0.8590499999999999 0.3590500000000000
0.1830000000000000 0.8909500000000000 0.3909500000000000
0.3170000000000000 0.6090500000000000 0.3909500000000000
0.1830000000000000 0.6090500000000000 0.1090500000000000
0.3170000000000000 0.8909500000000000 0.1090500000000000
0.1250000000000000 0.6250000000000000 0.6250000000000000
0.1409500000000000 0.6090500000000001 0.5669999999999999
0.3750000000000001 0.6250000000000000 0.6250000000000000
0.3909500000000000 0.6409500000000000 0.5669999999999999
0.3750000000000001 0.8750000000000000 0.6250000000000000
0.3590500000000000 0.8909500000000000 0.5669999999999999
0.1250000000000000 0.8750000000000000 0.6250000000000000
0.1090500000000000 0.8590499999999999 0.5669999999999999
0.1250000000000000 0.8750000000000000 0.8750000000000000
0.1409500000000000 0.8909499999999999 0.9330000000000001
0.1250000000000000 0.6250000000000000 0.8750000000000000
0.1090500000000000 0.6409499999999999 0.9330000000000001
0.3750000000000001 0.6250000000000000 0.8750000000000000
0.3590500000000000 0.6090500000000000 0.9330000000000001
0.3750000000000001 0.8750000000000000 0.8750000000000000
0.3909500000000000 0.8590499999999998 0.9330000000000001
0.0670000000000000 0.6409500000000000 0.6090500000000000
0.3590500000000000 0.5669999999999999 0.6090500000000000
0.4330000000000001 0.8590499999999999 0.6090500000000000
0.1409500000000000 0.9330000000000001 0.6090500000000000
0.0670000000000000 0.8590499999999999 0.8909500000000000
0.1409500000000000 0.5669999999999999 0.8909500000000000
0.4330000000000001 0.6409500000000000 0.8909500000000000
0.3590500000000000 0.9330000000000001 0.8909500000000000
0.1090500000000000 0.5669999999999999 0.6409500000000000
0.1090500000000000 0.9330000000000001 0.8590499999999999
0.0670000000000000 0.6090500000000001 0.8590499999999999
0.3909500000000000 0.5669999999999999 0.8590499999999999
0.4330000000000001 0.8909500000000000 0.8590499999999999
0.3909500000000000 0.9330000000000001 0.6409500000000000
0.0670000000000000 0.8909500000000000 0.6409500000000000
0.4330000000000001 0.6090500000000001 0.6409500000000000
0.3590500000000000 0.8909499999999999 0.9330000000000001
0.1090500000000000 0.8590499999999998 0.9330000000000001
0.1409500000000000 0.6090500000000000 0.9330000000000001
0.3909500000000000 0.6409499999999999 0.9330000000000001
0.3590500000000000 0.6090500000000001 0.5669999999999999
0.3909500000000000 0.8590499999999999 0.5669999999999999
0.1409500000000000 0.8909500000000000 0.5669999999999999
0.1090500000000000 0.6409500000000000 0.5669999999999999
0.4330000000000001 0.8590499999999999 0.8909500000000000
0.1409500000000000 0.9330000000000001 0.8909500000000000
0.0670000000000000 0.6409500000000000 0.8909500000000000
0.3590500000000000 0.5669999999999999 0.8909500000000000
0.4330000000000001 0.6409500000000000 0.6090500000000000
0.3590500000000000 0.9330000000000001 0.6090500000000000
0.0670000000000000 0.8590499999999999 0.6090500000000000
0.1409500000000000 0.5669999999999999 0.6090500000000000
0.3909500000000000 0.9330000000000001 0.8590499999999999
0.3909500000000000 0.5669999999999999 0.6409500000000000
0.4330000000000001 0.8909500000000000 0.6409500000000000
0.1090500000000000 0.9330000000000001 0.6409500000000000
0.0670000000000000 0.6090500000000001 0.6409500000000000
0.1090500000000000 0.5669999999999999 0.8590499999999999
0.4330000000000001 0.6090500000000001 0.8590499999999999
0.0670000000000000 0.8909500000000000 0.8590499999999999
0.1409500000000000 0.8590499999999999 0.8169999999999999
0.3909500000000000 0.8909500000000000 0.8169999999999999
0.3590500000000000 0.6409500000000000 0.8169999999999999
0.1090500000000000 0.6090500000000001 0.8169999999999999
0.1409500000000000 0.6409500000000000 0.6830000000000001
0.1090500000000000 0.8909500000000000 0.6830000000000001
0.3590500000000000 0.8590499999999999 0.6830000000000001
0.3909500000000000 0.6090500000000001 0.6830000000000001
0.3590500000000000 0.8169999999999999 0.8590499999999999
0.1409500000000000 0.6830000000000001 0.8590499999999999
0.1409500000000000 0.8169999999999999 0.6409500000000000
0.3590500000000000 0.6830000000000001 0.6409500000000000
0.1090500000000000 0.8169999999999999 0.8909500000000000
0.1090500000000000 0.6830000000000001 0.6090500000000000
0.3909500000000000 0.8169999999999999 0.6090500000000000
0.3909500000000000 0.6830000000000001 0.8909500000000000
0.3590500000000000 0.6409500000000000 0.6830000000000001
0.1090500000000000 0.6090500000000001 0.6830000000000001
0.1409500000000000 0.8590499999999999 0.6830000000000001
0.3909500000000000 0.8909500000000000 0.6830000000000001
0.3590500000000000 0.8590499999999999 0.8169999999999999
0.3909500000000000 0.6090500000000001 0.8169999999999999
0.1409500000000000 0.6409500000000000 0.8169999999999999
0.1090500000000000 0.8909500000000000 0.8169999999999999
0.1409500000000000 0.6830000000000001 0.6409500000000000
0.3590500000000000 0.8169999999999999 0.6409500000000000
0.3590500000000000 0.6830000000000001 0.8590499999999999
0.1409500000000000 0.8169999999999999 0.8590499999999999
0.3909500000000000 0.6830000000000001 0.6090500000000000
0.3909500000000000 0.8169999999999999 0.8909500000000000
0.1090500000000000 0.6830000000000001 0.8909500000000000
0.1090500000000000 0.8169999999999999 0.6090500000000000
0.3170000000000000 0.6409500000000000 0.8590499999999999
0.1830000000000000 0.8590499999999999 0.8590499999999999
0.3170000000000000 0.8590499999999999 0.6409500000000000
0.1830000000000000 0.6409500000000000 0.6409500000000000
0.3170000000000000 0.6090500000000001 0.6090500000000000
0.1830000000000000 0.8909500000000000 0.6090500000000000
0.3170000000000000 0.8909500000000000 0.8909500000000000
0.1830000000000000 0.6090500000000001 0.8909500000000000
0.1830000000000000 0.8590499999999999 0.6409500000000000
0.3170000000000000 0.6409500000000000 0.6409500000000000
0.1830000000000000 0.6409500000000000 0.8590499999999999
0.3170000000000000 0.8590499999999999 0.8590499999999999
0.1830000000000000 0.8909500000000000 0.8909500000000000
0.3170000000000000 0.6090500000000001 0.8909500000000000
0.1830000000000000 0.6090500000000001 0.6090500000000000
0.3170000000000000 0.8909500000000000 0.6090500000000000
0.6250000000000000 0.1250000000000000 0.1250000000000000
0.6409500000000000 0.1090500000000000 0.0670000000000000
0.8750000000000000 0.1250000000000000 0.1250000000000000
0.8909500000000000 0.1409500000000000 0.0670000000000000
0.8750000000000000 0.3750000000000000 0.1250000000000000
0.8590499999999999 0.3909500000000000 0.0670000000000000
0.6250000000000000 0.3750000000000000 0.1250000000000000
0.6090500000000000 0.3590500000000000 0.0670000000000000
0.6250000000000000 0.3750000000000000 0.3750000000000000
0.6409500000000000 0.3909500000000000 0.4330000000000000
0.6250000000000000 0.1250000000000000 0.3750000000000000
0.6090500000000000 0.1409500000000000 0.4330000000000000
0.8750000000000000 0.1250000000000000 0.3750000000000000
0.8590499999999999 0.1090500000000000 0.4330000000000000
0.8750000000000000 0.3750000000000000 0.3750000000000000
0.8909500000000000 0.3590500000000000 0.4330000000000000
0.5669999999999999 0.1409500000000000 0.1090500000000000
0.8590499999999999 0.0670000000000000 0.1090500000000000
0.9330000000000001 0.3590500000000000 0.1090500000000000
0.6409500000000000 0.4330000000000000 0.1090500000000000
0.5669999999999999 0.3590500000000000 0.3909500000000000
0.6409500000000000 0.0670000000000000 0.3909500000000000
0.9330000000000001 0.1409500000000000 0.3909500000000000
0.8590499999999999 0.4330000000000000 0.3909500000000000
0.6090500000000000 0.0670000000000000 0.1409500000000000
0.6090500000000000 0.4330000000000000 0.3590500000000000
0.5669999999999999 0.1090500000000000 0.3590500000000000
0.8909500000000000 0.0670000000000000 0.3590500000000000
0.9330000000000001 0.3909500000000000 0.3590500000000000
0.8909500000000000 0.4330000000000000 0.1409500000000000
0.5669999999999999 0.3909500000000000 0.1409500000000000
0.9330000000000001 0.1090500000000000 0.1409500000000000
0.8590499999999999 0.3909500000000000 0.4330000000000000
0.6090500000000000 0.3590500000000000 0.4330000000000000
0.6409500000000000 0.1090500000000000 0.4330000000000000
0.8909500000000000 0.1409500000000000 0.4330000000000000
0.8590499999999999 0.1090500000000000 0.0670000000000000
0.8909500000000000 0.3590500000000000 0.0670000000000000
0.6409500000000000 0.3909500000000000 0.0670000000000000
0.6090500000000000 0.1409500000000000 0.0670000000000000
0.9330000000000001 0.3590500000000000 0.3909500000000000
0.6409500000000000 0.4330000000000000 0.3909500000000000
0.5669999999999999 0.1409500000000000 0.3909500000000000
0.8590499999999999 0.0670000000000000 0.3909500000000000
0.9330000000000001 0.1409500000000000 0.1090500000000000
0.8590499999999999 0.4330000000000000 0.1090500000000000
0.5669999999999999 0.3590500000000000 0.1090500000000000
0.6409500000000000 0.0670000000000000 0.1090500000000000
0.8909500000000000 0.4330000000000000 0.3590500000000000
0.8909500000000000 0.0670000000000000 0.1409500000000000
0.9330000000000001 0.3909500000000000 0.1409500000000000
0.6090500000000000 0.4330000000000000 0.1409500000000000
0.5669999999999999 0.1090500000000000 0.1409500000000000
0.6090500000000000 0.0670000000000000 0.3590500000000000
0.9330000000000001 0.1090500000000000 0.3590500000000000
0.5669999999999999 0.3909500000000000 0.3590500000000000
0.6409500000000000 0.3590500000000000 0.3170000000000000
0.8909500000000000 0.3909500000000000 0.3170000000000000
0.8590499999999999 0.1409500000000000 0.3170000000000000
0.6090500000000000 0.1090500000000000 0.3170000000000000
0.6409500000000000 0.1409500000000000 0.1830000000000000
0.6090500000000000 0.3909500000000000 0.1830000000000000
0.8590499999999999 0.3590500000000000 0.1830000000000000
0.8909500000000000 0.1090500000000000 0.1830000000000000
0.8590499999999999 0.3170000000000000 0.3590500000000000
0.6409500000000000 0.1830000000000000 0.3590500000000000
0.6409500000000000 0.3170000000000000 0.1409500000000000
0.8590499999999999 0.1830000000000000 0.1409500000000000
0.6090500000000000 0.3170000000000000 0.3909500000000000
0.6090500000000000 0.1830000000000000 0.1090500000000000
0.8909500000000000 0.3170000000000000 0.1090500000000000
0.8909500000000000 0.1830000000000000 0.3909500000000000
0.8590499999999999 0.1409500000000000 0.1830000000000000
0.6090500000000000 0.1090500000000000 0.1830000000000000
0.6409500000000000 0.3590500000000000 0.1830000000000000
0.8909500000000000 0.3909500000000000 0.1830000000000000
0.8590499999999999 0.3590500000000000 0.3170000000000000
0.8909500000000000 0.1090500000000000 0.3170000000000000
0.6409500000000000 0.1409500000000000 0.3170000000000000
0.6090500000000000 0.3909500000000000 0.3170000000000000
0.6409500000000000 0.1830000000000000 0.1409500000000000
0.8590499999999999 0.3170000000000000 0.1409500000000000
0.8590499999999999 0.1830000000000000 0.3590500000000000
0.6409500000000000 0.3170000000000000 0.3590500000000000
0.8909500000000000 0.1830000000000000 0.1090500000000000
0.8909500000000000 0.3170000000000000 0.3909500000000000
0.6090500000000000 0.1830000000000000 0.3909500000000000
0.6090500000000000 0.3170000000000000 0.1090500000000000
0.8169999999999999 0.1409500000000000 0.3590500000000000
0.6830000000000001 0.3590500000000000 0.3590500000000000
0.8169999999999999 0.3590500000000000 0.1409500000000000
0.6830000000000001 0.1409500000000000 0.1409500000000000
0.8169999999999999 0.1090500000000000 0.1090500000000000
0.6830000000000001 0.3909500000000000 0.1090500000000000
0.8169999999999999 0.3909500000000000 0.3909500000000000
0.6830000000000001 0.1090500000000000 0.3909500000000000
0.6830000000000001 0.3590500000000000 0.1409500000000000
0.8169999999999999 0.1409500000000000 0.1409500000000000
0.6830000000000001 0.1409500000000000 0.3590500000000000
0.8169999999999999 0.3590500000000000 0.3590500000000000
0.6830000000000001 0.3909500000000000 0.3909500000000000
0.8169999999999999 0.1090500000000000 0.3909500000000000
0.6830000000000001 0.1090500000000000 0.1090500000000000
0.8169999999999999 0.3909500000000000 0.1090500000000000
0.6250000000000000 0.1250000000000000 0.6250000000000000
0.6409500000000000 0.1090500000000000 0.5669999999999999
0.8750000000000000 0.1250000000000000 0.6250000000000000
0.8909500000000000 0.1409500000000000 0.5669999999999999
0.8750000000000000 0.3750000000000001 0.6250000000000000
0.8590499999999999 0.3909500000000000 0.5669999999999999
0.6250000000000000 0.3750000000000001 0.6250000000000000
0.6090500000000001 0.3590500000000000 0.5669999999999999
0.6250000000000000 0.3750000000000001 0.8750000000000000
0.6409499999999999 0.3909500000000000 0.9330000000000001
0.6250000000000000 0.1250000000000000 0.8750000000000000
0.6090500000000000 0.1409500000000000 0.9330000000000001
0.8750000000000000 0.1250000000000000 0.8750000000000000
0.8590499999999998 0.1090500000000000 0.9330000000000001
0.8750000000000000 0.3750000000000001 0.8750000000000000
0.8909499999999999 0.3590500000000000 0.9330000000000001
0.5669999999999999 0.1409500000000000 0.6090500000000000
0.8590499999999999 0.0670000000000000 0.6090500000000000
0.9330000000000001 0.3590500000000000 0.6090500000000000
0.6409500000000000 0.4330000000000000 0.6090500000000000
0.5669999999999999 0.3590500000000000 0.8909500000000000
0.6409500000000000 0.0670000000000000 0.8909500000000000
0.9330000000000001 0.1409500000000000 0.8909500000000000
0.8590499999999999 0.4330000000000000 0.8909500000000000
0.6090500000000001 0.0670000000000000 0.6409500000000000
0.6090500000000001 0.4330000000000000 0.8590499999999999
0.5669999999999999 0.1090500000000000 0.8590499999999999
0.8909500000000000 0.0670000000000000 0.8590499999999999
0.9330000000000001 0.3909500000000000 0.8590499999999999
0.8909500000000000 0.4330000000000000 0.6409500000000000
0.5669999999999999 0.3909500000000000 0.6409500000000000
0.9330000000000001 0.1090500000000000 0.6409500000000000
0.8590499999999998 0.3909500000000000 0.9330000000000001
0.6090500000000000 0.3590500000000000 0.9330000000000001
0.6409499999999999 0.1090500000000000 0.9330000000000001
0.8909499999999999 0.1409500000000000 0.9330000000000001
0.8590499999999999 0.1090500000000000 0.5669999999999999
0.8909500000000000 0.3590500000000000 0.5669999999999999
0.6409500000000000 0.3909500000000000 0.5669999999999999
0.6090500000000001 0.1409500000000000 0.5669999999999999
0.9330000000000001 0.3590500000000000 0.8909500000000000
0.6409500000000000 0.4330000000000000 0.8909500000000000
0.5669999999999999 0.1409500000000000 0.8909500000000000
0.8590499999999999 0.0670000000000000 0.8909500000000000
0.9330000000000001 0.1409500000000000 0.6090500000000000
0.8590499999999999 0.4330000000000000 0.6090500000000000
0.5669999999999999 0.3590500000000000 0.6090500000000000
0.6409500000000000 0.0670000000000000 0.6090500000000000
0.8909500000000000 0.4330000000000000 0.8590499999999999
0.8909500000000000 0.0670000000000000 0.6409500000000000
0.9330000000000001 0.3909500000000000 0.6409500000000000
0.6090500000000001 0.4330000000000000 0.6409500000000000
0.5669999999999999 0.1090500000000000 0.6409500000000000
0.6090500000000001 0.0670000000000000 0.8590499999999999
0.9330000000000001 0.1090500000000000 0.8590499999999999
0.5669999999999999 0.3909500000000000 0.8590499999999999
0.6409500000000000 0.3590500000000000 0.8169999999999999
0.8909500000000000 0.3909500000000000 0.8169999999999999
0.8590499999999999 0.1409500000000000 0.8169999999999999
0.6090500000000001 0.1090500000000000 0.8169999999999999
0.6409500000000000 0.1409500000000000 0.6830000000000001
0.6090500000000001 0.3909500000000000 0.6830000000000001
0.8590499999999999 0.3590500000000000 0.6830000000000001
0.8909500000000000 0.1090500000000000 0.6830000000000001
0.8590499999999999 0.3170000000000000 0.8590499999999999
0.6409500000000000 0.1830000000000000 0.8590499999999999
0.6409500000000000 0.3170000000000000 0.6409500000000000
0.8590499999999999 0.1830000000000000 0.6409500000000000
0.6090500000000001 0.3170000000000000 0.8909500000000000
0.6090500000000001 0.1830000000000000 0.6090500000000000
0.8909500000000000 0.3170000000000000 0.6090500000000000
0.8909500000000000 0.1830000000000000 0.8909500000000000
0.8590499999999999 0.1409500000000000 0.6830000000000001
0.6090500000000001 0.1090500000000000 0.6830000000000001
0.6409500000000000 0.3590500000000000 0.6830000000000001
0.8909500000000000 0.3909500000000000 0.6830000000000001
0.8590499999999999 0.3590500000000000 0.8169999999999999
0.8909500000000000 0.1090500000000000 0.8169999999999999
0.6409500000000000 0.1409500000000000 0.8169999999999999
0.6090500000000001 0.3909500000000000 0.8169999999999999
0.6409500000000000 0.1830000000000000 0.6409500000000000
0.8590499999999999 0.3170000000000000 0.6409500000000000
0.8590499999999999 0.1830000000000000 0.8590499999999999
0.6409500000000000 0.3170000000000000 0.8590499999999999
0.8909500000000000 0.1830000000000000 0.6090500000000000
0.8909500000000000 0.3170000000000000 0.8909500000000000
0.6090500000000001 0.1830000000000000 0.8909500000000000
0.6090500000000001 0.3170000000000000 0.6090500000000000
0.8169999999999999 0.1409500000000000 0.8590499999999999
0.6830000000000001 0.3590500000000000 0.8590499999999999
0.8169999999999999 0.3590500000000000 0.6409500000000000
0.6830000000000001 0.1409500000000000 0.6409500000000000
0.8169999999999999 0.1090500000000000 0.6090500000000000
0.6830000000000001 0.3909500000000000 0.6090500000000000
0.8169999999999999 0.3909500000000000 0.8909500000000000
0.6830000000000001 0.1090500000000000 0.8909500000000000
0.6830000000000001 0.3590500000000000 0.6409500000000000
0.8169999999999999 0.1409500000000000 0.6409500000000000
0.6830000000000001 0.1409500000000000 0.8590499999999999
0.8169999999999999 0.3590500000000000 0.8590499999999999
0.6830000000000001 0.3909500000000000 0.8909500000000000
0.8169999999999999 0.1090500000000000 0.8909500000000000
0.6830000000000001 0.1090500000000000 0.6090500000000000
0.8169999999999999 0.3909500000000000 0.6090500000000000
0.6250000000000000 0.6250000000000000 0.1250000000000000
0.6409500000000000 0.6090500000000000 0.0670000000000000
0.8750000000000000 0.6250000000000000 0.1250000000000000
0.8909500000000000 0.6409500000000000 0.0670000000000000
0.8750000000000000 0.8750000000000000 0.1250000000000000
0.8590499999999999 0.8909500000000000 0.0670000000000000
0.6250000000000000 0.8750000000000000 0.1250000000000000
0.6090500000000001 0.8590499999999999 0.0670000000000000
0.6250000000000000 0.8750000000000000 0.3750000000000000
0.6409500000000000 0.8909500000000000 0.4330000000000000
0.6250000000000000 0.6250000000000000 0.3750000000000000
0.6090500000000001 0.6409500000000000 0.4330000000000000
0.8750000000000000 0.6250000000000000 0.3750000000000000
0.8590499999999999 0.6090500000000000 0.4330000000000000
0.8750000000000000 0.8750000000000000 0.3750000000000000
0.8909500000000000 0.8590499999999999 0.4330000000000000
0.5669999999999999 0.6409500000000000 0.1090500000000000
0.8590499999999999 0.5669999999999999 0.1090500000000000
0.9330000000000001 0.8590499999999999 0.1090500000000000
0.6409499999999999 0.9330000000000001 0.1090500000000000
0.5669999999999999 0.8590499999999999 0.3909500000000000
0.6409500000000000 0.5669999999999999 0.3909500000000000
0.9330000000000001 0.6409500000000000 0.3909500000000000
0.8590499999999998 0.9330000000000001 0.3909500000000000
0.6090500000000001 0.5669999999999999 0.1409500000000000
0.6090500000000000 0.9330000000000001 0.3590500000000000
0.5669999999999999 0.6090500000000000 0.3590500000000000
0.8909500000000000 0.5669999999999999 0.3590500000000000
0.9330000000000001 0.8909500000000000 0.3590500000000000
0.8909499999999999 0.9330000000000001 0.1409500000000000
0.5669999999999999 0.8909500000000000 0.1409500000000000
0.9330000000000001 0.6090500000000000 0.1409500000000000
0.8590499999999999 0.8909500000000000 0.4330000000000000
0.6090500000000001 0.8590499999999999 0.4330000000000000
0.6409500000000000 0.6090500000000000 0.4330000000000000
0.8909500000000000 0.6409500000000000 0.4330000000000000
0.8590499999999999 0.6090500000000000 0.0670000000000000
0.8909500000000000 0.8590499999999999 0.0670000000000000
0.6409500000000000 0.8909500000000000 0.0670000000000000
0.6090500000000001 0.6409500000000000 0.0670000000000000
0.9330000000000001 0.8590499999999999 0.3909500000000000
0.6409499999999999 0.9330000000000001 0.3909500000000000
0.5669999999999999 0.6409500000000000 0.3909500000000000
0.8590499999999999 0.5669999999999999 0.3909500000000000
0.9330000000000001 0.6409500000000000 0.1090500000000000
0.8590499999999998 0.9330000000000001 0.1090500000000000
0.5669999999999999 0.8590499999999999 0.1090500000000000
0.6409500000000000 0.5669999999999999 0.1090500000000000
0.8909499999999999 0.9330000000000001 0.3590500000000000
0.8909500000000000 0.5669999999999999 0.1409500000000000
0.9330000000000001 0.8909500000000000 0.1409500000000000
0.6090500000000000 0.9330000000000001 0.1409500000000000
0.5669999999999999 0.6090500000000000 0.1409500000000000
0.6090500000000001 0.5669999999999999 0.3590500000000000
0.9330000000000001 0.6090500000000000 0.3590500000000000
0.5669999999999999 0.8909500000000000 0.3590500000000000
0.6409500000000000 0.8590499999999999 0.3170000000000000
0.8909500000000000 0.8909500000000000 0.3170000000000000
0.8590499999999999 0.6409500000000000 0.3170000000000000
0.6090500000000001 0.6090500000000000 0.3170000000000000
0.6409500000000000 0.6409500000000000 0.1830000000000000
0.6090500000000001 0.8909500000000000 0.1830000000000000
0.8590499999999999 0.8590499999999999 0.1830000000000000
0.8909500000000000 0.6090500000000000 0.1830000000000000
0.8590499999999999 0.8169999999999999 0.3590500000000000
0.6409500000000000 0.6830000000000001 0.3590500000000000
0.6409500000000000 0.8169999999999999 0.1409500000000000
0.8590499999999999 0.6830000000000001 0.1409500000000000
0.6090500000000001 0.8169999999999999 0.3909500000000000
0.6090500000000001 0.6830000000000001 0.1090500000000000
0.8909500000000000 0.8169999999999999 0.1090500000000000
0.8909500000000000 0.6830000000000001 0.3909500000000000
0.8590499999999999 0.6409500000000000 0.1830000000000000
0.6090500000000001 0.6090500000000000 0.1830000000000000
0.6409500000000000 0.8590499999999999 0.1830000000000000
0.8909500000000000 0.8909500000000000 0.1830000000000000
0.8590499999999999 0.8590499999999999 0.3170000000000000
0.8909500000000000 0.6090500000000000 0.3170000000000000
0.6409500000000000 0.6409500000000000 0.3170000000000000
0.6090500000000001 0.8909500000000000 0.3170000000000000
0.6409500000000000 0.6830000000000001 0.1409500000000000
0.8590499999999999 0.8169999999999999 0.1409500000000000
0.8590499999999999 0.6830000000000001 0.3590500000000000
0.6409500000000000 0.8169999999999999 0.3590500000000000
0.8909500000000000 0.6830000000000001 0.1090500000000000
0.8909500000000000 0.8169999999999999 0.3909500000000000
0.6090500000000001 0.6830000000000001 0.3909500000000000
0.6090500000000001 0.8169999999999999 0.1090500000000000
0.8169999999999999 0.6409500000000000 0.3590500000000000
0.6830000000000001 0.8590499999999999 0.3590500000000000
0.8169999999999999 0.8590499999999999 0.1409500000000000
0.6830000000000001 0.6409500000000000 0.1409500000000000
0.8169999999999999 0.6090500000000000 0.1090500000000000
0.6830000000000001 0.8909500000000000 0.1090500000000000
0.8169999999999999 0.8909500000000000 0.3909500000000000
0.6830000000000001 0.6090500000000000 0.3909500000000000
0.6830000000000001 0.8590499999999999 0.1409500000000000
0.8169999999999999 0.6409500000000000 0.1409500000000000
0.6830000000000001 0.6409500000000000 0.3590500000000000
0.8169999999999999 0.8590499999999999 0.3590500000000000
0.6830000000000001 0.8909500000000000 0.3909500000000000
0.8169999999999999 0.6090500000000000 0.3909500000000000
0.6830000000000001 0.6090500000000000 0.1090500000000000
0.8169999999999999 0.8909500000000000 0.1090500000000000
0.6250000000000000 0.6250000000000000 0.6250000000000000
0.6409500000000000 0.6090500000000001 0.5669999999999999
0.8750000000000000 0.6250000000000000 0.6250000000000000
0.8909500000000000 0.6409500000000000 0.5669999999999999
0.8750000000000000 0.8750000000000000 0.6250000000000000
0.8590499999999999 0.8909500000000000 0.5669999999999999
0.6250000000000000 0.8750000000000000 0.6250000000000000
0.6090500000000001 0.8590499999999999 0.5669999999999999
0.6250000000000000 0.8750000000000000 0.8750000000000000
0.6409499999999999 0.8909499999999999 0.9330000000000001
0.6250000000000000 0.6250000000000000 0.8750000000000000
0.6090500000000000 0.6409499999999999 0.9330000000000001
0.8750000000000000 0.6250000000000000 0.8750000000000000
0.8590499999999998 0.6090500000000000 0.9330000000000001
0.8750000000000000 0.8750000000000000 0.8750000000000000
0.8909499999999999 0.8590499999999998 0.9330000000000001
0.5670000000000001 0.6409500000000000 0.6090500000000000
0.8590499999999999 0.5669999999999999 0.6090500000000000
0.9330000000000001 0.8590499999999999 0.6090500000000000
0.6409499999999999 0.9330000000000001 0.6090500000000000
0.5670000000000001 0.8590499999999999 0.8909500000000000
0.6409500000000000 0.5669999999999999 0.8909500000000000
0.9330000000000001 0.6409500000000000 0.8909500000000000
0.8590499999999998 0.9330000000000001 0.8909500000000000
0.6090500000000001 0.5669999999999999 0.6409500000000000
0.6090500000000000 0.9330000000000001 0.8590499999999999
0.5670000000000001 0.6090500000000001 0.8590499999999999
0.8909500000000000 0.5669999999999999 0.8590499999999999
0.9330000000000001 0.8909500000000000 0.8590499999999999
0.8909499999999999 0.9330000000000001 0.6409500000000000
0.5670000000000001 0.8909500000000000 0.6409500000000000
0.9330000000000001 0.6090500000000001 0.6409500000000000
0.8590499999999998 0.8909499999999999 0.9330000000000001
0.6090500000000000 0.8590499999999998 0.9330000000000001
0.6409499999999999 0.6090500000000000 0.9330000000000001
0.8909499999999999 0.6409499999999999 0.9330000000000001
0.8590499999999999 0.6090500000000001 0.5669999999999999
0.8909500000000000 0.8590499999999999 0.5669999999999999
0.6409500000000000 0.8909500000000000 0.5669999999999999
0.6090500000000001 0.6409500000000000 0.5669999999999999
0.9330000000000001 0.8590499999999999 0.8909500000000000
0.6409499999999999 0.9330000000000001 0.8909500000000000
0.5670000000000001 0.6409500000000000 0.8909500000000000
0.8590499999999999 0.5669999999999999 0.8909500000000000
0.9330000000000001 0.6409500000000000 0.6090500000000000
0.8590499999999998 0.9330000000000001 0.6090500000000000
0.5670000000000001 0.8590499999999999 0.6090500000000000
0.6409500000000000 0.5669999999999999 0.6090500000000000
0.8909499999999999 0.9330000000000001 0.8590499999999999
0.8909500000000000 0.5669999999999999 0.6409500000000000
0.9330000000000001 0.8909500000000000 0.6409500000000000
0.6090500000000000 0.9330000000000001 0.6409500000000000
0.5670000000000001 0.6090500000000001 0.6409500000000000
0.6090500000000001 0.5669999999999999 0.8590499999999999
0.9330000000000001 0.6090500000000001 0.8590499999999999
0.5670000000000001 0.8909500000000000 0.8590499999999999
0.6409500000000000 0.8590499999999999 0.8169999999999999
0.8909500000000000 0.8909500000000000 0.8169999999999999
0.8590499999999999 0.6409500000000000 0.8169999999999999
0.6090500000000001 0.6090500000000001 0.8169999999999999
0.6409500000000000 0.6409500000000000 0.6830000000000001
0.6090500000000001 0.8909500000000000 0.6830000000000001
0.8590499999999999 0.8590499999999999 0.6830000000000001
0.8909500000000000 0.6090500000000001 0.6830000000000001
0.8590499999999999 0.8169999999999999 0.8590499999999999
0.6409500000000000 0.6830000000000001 0.8590499999999999
0.6409500000000000 0.8169999999999999 0.6409500000000000
0.8590499999999999 0.6830000000000001 0.6409500000000000
0.6090500000000001 0.8169999999999999 0.8909500000000000
0.6090500000000001 0.6830000000000001 0.6090500000000000
0.8909500000000000 0.8169999999999999 0.6090500000000000
0.8909500000000000 0.6830000000000001 0.8909500000000000
0.8590499999999999 0.6409500000000000 0.6830000000000001
0.6090500000000001 0.6090500000000001 0.6830000000000001
0.6409500000000000 0.8590499999999999 0.6830000000000001
0.8909500000000000 0.8909500000000000 0.6830000000000001
0.8590499999999999 0.8590499999999999 0.8169999999999999
0.8909500000000000 0.6090500000000001 0.8169999999999999
0.6409500000000000 0.6409500000000000 0.8169999999999999
0.6090500000000001 0.8909500000000000 0.8169999999999999
0.6409500000000000 0.6830000000000001 0.6409500000000000
0.8590499999999999 0.8169999999999999 0.6409500000000000
0.8590499999999999 0.6830000000000001 0.8590499999999999
0.6409500000000000 0.8169999999999999 0.8590499999999999
0.8909500000000000 0.6830000000000001 0.6090500000000000
0.8909500000000000 0.8169999999999999 0.8909500000000000
0.6090500000000001 0.6830000000000001 0.8909500000000000
0.6090500000000001 0.8169999999999999 0.6090500000000000
0.8169999999999999 0.6409500000000000 0.8590499999999999
0.6830000000000001 0.8590499999999999 0.8590499999999999
0.8169999999999999 0.8590499999999999 0.6409500000000000
0.6830000000000001 0.6409500000000000 0.6409500000000000
0.8169999999999999 0.6090500000000001 0.6090500000000000
0.6830000000000001 0.8909500000000000 0.6090500000000000
0.8169999999999999 0.8909500000000000 0.8909500000000000
0.6830000000000001 0.6090500000000001 0.8909500000000000
0.6830000000000001 0.8590499999999999 0.6409500000000000
0.8169999999999999 0.6409500000000000 0.6409500000000000
0.6830000000000001 0.6409500000000000 0.8590499999999999
0.8169999999999999 0.8590499999999999 0.8590499999999999
0.6830000000000001 0.8909500000000000 0.8909500000000000
0.8169999999999999 0.6090500000000001 0.8909500000000000
0.6830000000000001 0.6090500000000001 0.6090500000000000
0.8169999999999999 0.8909500000000000 0.6090500000000000
0.1250000000000000 0.1250000000000000 0.0556500000000000
0.1250000000000000 0.1250000000000000 0.0269000000000000
0.1414500000000000 0.1085500000000000 0.0134500000000000
0.3750000000000000 0.1250000000000000 0.0556500000000000
0.3750000000000000 0.1250000000000000 0.0269000000000000
0.3914500000000000 0.1414500000000000 0.0134500000000000
0.3750000000000000 0.3750000000000000 0.0556500000000000
0.3750000000000000 0.3750000000000000 0.0269000000000000
0.3585500000000000 0.3914500000000000 0.0134500000000000
0.1250000000000000 0.3750000000000000 0.0556500000000000
0.1250000000000000 0.3750000000000000 0.0269000000000000
0.1085500000000000 0.3585500000000000 0.0134500000000000
0.1250000000000000 0.3750000000000000 0.4443500000000000
0.1250000000000000 0.3749999999999999 0.4731000000000000
0.1414500000000000 0.3914500000000000 0.4865500000000000
0.1250000000000000 0.1250000000000000 0.4443500000000000
0.1250000000000000 0.1250000000000000 0.4731000000000000
0.1085500000000000 0.1414500000000000 0.4865500000000000
0.3750000000000000 0.1250000000000000 0.4443500000000000
0.3749999999999999 0.1250000000000000 0.4731000000000000
0.3585500000000000 0.1085500000000000 0.4865500000000000
0.3750000000000000 0.3750000000000000 0.4443500000000000
0.3749999999999999 0.3749999999999999 0.4731000000000000
0.3914500000000000 0.3585500000000000 0.4865500000000000
0.0556500000000000 0.1250000000000000 0.1250000000000000
0.0269000000000000 0.1250000000000000 0.1250000000000000
0.0134500000000000 0.1414500000000000 0.1085500000000000
0.3750000000000000 0.0556500000000000 0.1250000000000000
0.3750000000000000 0.0269000000000000 0.1250000000000000
0.3585500000000000 0.0134500000000000 0.1085500000000000
0.4443500000000000 0.3750000000000000 0.1250000000000000
0.4731000000000000 0.3750000000000000 0.1250000000000000
0.4865500000000000 0.3585500000000000 0.1085500000000000
0.1250000000000000 0.4443500000000000 0.1250000000000000
0.1250000000000000 0.4731000000000000 0.1250000000000000
0.1414500000000000 0.4865500000000000 0.1085500000000000
0.0556500000000000 0.3750000000000000 0.3750000000000000
0.0269000000000000 0.3750000000000000 0.3750000000000000
0.0134500000000000 0.3585500000000000 0.3914500000000000
0.1250000000000000 0.0556500000000000 0.3750000000000000
0.1250000000000000 0.0269000000000000 0.3750000000000000
0.1414500000000000 0.0134500000000000 0.3914500000000000
0.4443500000000000 0.1250000000000000 0.3750000000000000
0.4731000000000000 0.1250000000000000 0.3750000000000000
0.4865500000000000 0.1414500000000000 0.3914500000000000
0.3750000000000000 0.4443500000000000 0.3750000000000000
0.3749999999999999 0.4731000000000000 0.3750000000000000
0.3585500000000000 0.4865500000000000 0.3914500000000000
0.1250000000000000 0.0556500000000000 0.1250000000000000
0.1250000000000000 0.0269000000000000 0.1250000000000000
0.1085500000000000 0.0134500000000000 0.1414500000000000
0.1250000000000000 0.4443500000000000 0.3750000000000000
0.1250000000000000 0.4731000000000000 0.3750000000000000
0.1085500000000000 0.4865500000000000 0.3585500000000000
0.0556500000000000 0.1250000000000000 0.3750000000000000
0.0269000000000000 0.1250000000000000 0.3750000000000000
0.0134500000000000 0.1085500000000000 0.3585500000000000
0.3750000000000000 0.0556500000000000 0.3750000000000000
0.3750000000000000 0.0269000000000000 0.3750000000000000
0.3914500000000000 0.0134500000000000 0.3585500000000000
0.4443500000000000 0.3750000000000000 0.3750000000000000
0.4731000000000000 0.3750000000000000 0.3750000000000000
0.4865500000000000 0.3914500000000000 0.3585500000000000
0.3750000000000000 0.4443500000000000 0.1250000000000000
0.3749999999999999 0.4731000000000000 0.1250000000000000
0.3914500000000000 0.4865500000000000 0.1414500000000000
0.0556500000000000 0.3750000000000000 0.1250000000000000
0.0269000000000000 0.3750000000000000 0.1250000000000000
0.0134500000000000 0.3914500000000000 0.1414500000000000
0.4443500000000000 0.1250000000000000 0.1250000000000000
0.4731000000000000 0.1250000000000000 0.1250000000000000
0.4865500000000000 0.1085500000000000 0.1414500000000000
0.3585500000000000 0.3914500000000000 0.4865500000000000
0.1085500000000000 0.3585500000000000 0.4865500000000000
0.1414500000000000 0.1085500000000000 0.4865500000000000
0.3914500000000000 0.1414500000000000 0.4865500000000000
0.3585500000000000 0.1085500000000000 0.0134500000000000
0.3914500000000000 0.3585500000000000 0.0134500000000000
0.1414500000000000 0.3914500000000000 0.0134500000000000
0.1085500000000000 0.1414500000000000 0.0134500000000000
0.4865500000000000 0.3585500000000000 0.3914500000000000
0.1414500000000000 0.4865500000000000 0.3914500000000000
0.0134500000000000 0.1414500000000000 0.3914500000000000
0.3585500000000000 0.0134500000000000 0.3914500000000000
0.4865500000000000 0.1414500000000000 0.1085500000000000
0.3585500000000000 0.4865500000000000 0.1085500000000000
0.0134500000000000 0.3585500000000000 0.1085500000000000
0.1414500000000000 0.0134500000000000 0.1085500000000000
0.3914500000000000 0.4865500000000000 0.3585500000000000
0.3914500000000000 0.0134500000000000 0.1414500000000000
0.4865500000000000 0.3914500000000000 0.1414500000000000
0.1085500000000000 0.4865500000000000 0.1414500000000000
0.0134500000000000 0.1085500000000000 0.1414500000000000
0.1085500000000000 0.0134500000000000 0.3585500000000000
0.4865500000000000 0.1085500000000000 0.3585500000000000
0.0134500000000000 0.3914500000000000 0.3585500000000000
0.1250000000000000 0.3750000000000000 0.3056500000000000
0.1250000000000000 0.3750000000000000 0.2769000000000000
0.1414500000000000 0.3585500000000000 0.2634500000000000
0.3750000000000000 0.3750000000000000 0.3056500000000000
0.3750000000000000 0.3750000000000000 0.2769000000000000
0.3914500000000000 0.3914500000000000 0.2634500000000000
0.3750000000000000 0.1250000000000000 0.3056500000000000
0.3750000000000000 0.1250000000000000 0.2769000000000000
0.3585500000000000 0.1414500000000000 0.2634500000000000
0.1250000000000000 0.1250000000000000 0.3056500000000000
0.1250000000000000 0.1250000000000000 0.2769000000000000
0.1085500000000000 0.1085500000000000 0.2634500000000000
0.1250000000000000 0.1250000000000000 0.1943500000000000
0.1250000000000000 0.1250000000000000 0.2231000000000000
0.1414500000000000 0.1414500000000000 0.2365500000000000
0.1250000000000000 0.3750000000000000 0.1943500000000000
0.1250000000000000 0.3750000000000000 0.2231000000000000
0.1085500000000000 0.3914500000000000 0.2365500000000000
0.3750000000000000 0.3750000000000000 0.1943500000000000
0.3750000000000000 0.3750000000000000 0.2231000000000000
0.3585500000000000 0.3585500000000000 0.2365500000000000
0.3750000000000000 0.1250000000000000 0.1943500000000000
0.3750000000000000 0.1250000000000000 0.2231000000000000
0.3914500000000000 0.1085500000000000 0.2365500000000000
0.3750000000000000 0.3056500000000000 0.3750000000000000
0.3750000000000000 0.2769000000000000 0.3750000000000000
0.3585500000000000 0.2634500000000001 0.3585500000000000
0.1250000000000000 0.1943500000000000 0.3750000000000000
0.1250000000000000 0.2231000000000000 0.3750000000000000
0.1414500000000000 0.2365500000000000 0.3585500000000000
0.1250000000000000 0.3056500000000000 0.1250000000000000
0.1250000000000000 0.2769000000000000 0.1250000000000000
0.1414500000000000 0.2634500000000000 0.1414500000000000
0.3750000000000000 0.1943500000000000 0.1250000000000000
0.3750000000000000 0.2231000000000000 0.1250000000000000
0.3585500000000000 0.2365500000000000 0.1414500000000000
0.1250000000000000 0.3056500000000000 0.3750000000000000
0.1250000000000000 0.2769000000000000 0.3750000000000000
0.1085500000000000 0.2634500000000001 0.3914500000000000
0.1250000000000000 0.1943500000000000 0.1250000000000000
0.1250000000000000 0.2231000000000000 0.1250000000000000
0.1085500000000000 0.2365500000000000 0.1085500000000000
0.3750000000000000 0.3056500000000000 0.1250000000000000
0.3750000000000000 0.2769000000000000 0.1250000000000000
0.3914500000000000 0.2634500000000000 0.1085500000000000
0.3750000000000000 0.1943500000000000 0.3750000000000000
0.3750000000000000 0.2231000000000000 0.3750000000000000
0.3914500000000000 0.2365500000000000 0.3914500000000000
0.3585500000000000 0.1414500000000000 0.2365500000000000
0.1085500000000000 0.1085500000000000 0.2365500000000000
0.1414500000000000 0.3585500000000000 0.2365500000000000
0.3914500000000000 0.3914500000000000 0.2365500000000000
0.3585500000000000 0.3585500000000000 0.2634500000000000
0.3914500000000000 0.1085500000000000 0.2634500000000000
0.1414500000000000 0.1414500000000000 0.2634500000000000
0.1085500000000000 0.3914500000000000 0.2634500000000000
0.1414500000000000 0.2365500000000000 0.1414500000000000
0.3585500000000000 0.2634500000000000 0.1414500000000000
0.3585500000000000 0.2365500000000000 0.3585500000000000
0.1414500000000000 0.2634500000000001 0.3585500000000000
0.3914500000000000 0.2365500000000000 0.1085500000000000
0.3914500000000000 0.2634500000000001 0.3914500000000000
0.1085500000000000 0.2365500000000000 0.3914500000000000
0.1085500000000000 0.2634500000000000 0.1085500000000000
0.3056500000000000 0.1250000000000000 0.3750000000000000
0.2769000000000000 0.1250000000000000 0.3750000000000000
0.2634500000000001 0.1414500000000000 0.3585500000000000
0.1943500000000000 0.3750000000000000 0.3750000000000000
0.2231000000000000 0.3750000000000000 0.3750000000000000
0.2365500000000000 0.3585500000000000 0.3585500000000000
0.3056500000000000 0.3750000000000000 0.1250000000000000
0.2769000000000000 0.3750000000000000 0.1250000000000000
0.2634500000000001 0.3585500000000000 0.1414500000000000
0.1943500000000000 0.1250000000000000 0.1250000000000000
0.2231000000000000 0.1250000000000000 0.1250000000000000
0.2365500000000000 0.1414500000000000 0.1414500000000000
0.3056500000000000 0.1250000000000000 0.1250000000000000
0.2769000000000000 0.1250000000000000 0.1250000000000000
0.2634500000000000 0.1085500000000000 0.1085500000000000
0.1943500000000000 0.3750000000000000 0.1250000000000000
0.2231000000000000 0.3750000000000000 0.1250000000000000
0.2365500000000000 0.3914500000000000 0.1085500000000000
0.3056500000000000 0.3750000000000000 0.3750000000000000
0.2769000000000000 0.3750000000000000 0.3750000000000000
0.2634500000000001 0.3914500000000000 0.3914500000000000
0.1943500000000000 0.1250000000000000 0.3750000000000000
0.2231000000000000 0.1250000000000000 0.3750000000000000
0.2365500000000000 0.1085500000000000 0.3914500000000000
0.2365500000000000 0.3585500000000000 0.1414500000000000
0.2634500000000000 0.1414500000000000 0.1414500000000000
0.2365500000000000 0.1414500000000000 0.3585500000000000
0.2634500000000001 0.3585500000000000 0.3585500000000000
0.2365500000000000 0.3914500000000000 0.3914500000000000
0.2634500000000001 0.1085500000000000 0.3914500000000000
0.2365500000000000 0.1085500000000000 0.1085500000000000
0.2634500000000001 0.3914500000000000 0.1085500000000000
0.1250000000000000 0.1250000000000000 0.5556500000000000
0.1250000000000000 0.1250000000000000 0.5269000000000000
0.1414500000000000 0.1085500000000000 0.5134500000000000
0.3749999999999999 0.1250000000000000 0.5556500000000000
0.3749999999999999 0.1250000000000000 0.5269000000000000
0.3914500000000000 0.1414500000000000 0.5134500000000000
0.3749999999999999 0.3749999999999999 0.5556500000000000
0.3749999999999999 0.3749999999999999 0.5269000000000000
0.3585500000000000 0.3914500000000000 0.5134500000000000
0.1250000000000000 0.3749999999999999 0.5556500000000000
0.1250000000000000 0.3749999999999999 0.5269000000000000
0.1085500000000000 0.3585500000000000 0.5134500000000000
0.1250000000000000 0.3750000000000001 0.9443500000000000
0.1250000000000000 0.3750000000000001 0.9731000000000001
0.1414500000000000 0.3914500000000000 0.9865499999999999
0.1250000000000000 0.1250000000000000 0.9443500000000000
0.1250000000000000 0.1250000000000000 0.9731000000000001
0.1085500000000000 0.1414500000000000 0.9865499999999999
0.3750000000000001 0.1250000000000000 0.9443500000000000
0.3750000000000001 0.1250000000000000 0.9731000000000001
0.3585500000000000 0.1085500000000000 0.9865499999999999
0.3750000000000001 0.3750000000000001 0.9443500000000000
0.3750000000000001 0.3750000000000001 0.9731000000000001
0.3914500000000000 0.3585500000000000 0.9865499999999999
0.0556500000000000 0.1250000000000000 0.6250000000000000
0.0269000000000000 0.1250000000000000 0.6250000000000000
0.0134500000000000 0.1414500000000000 0.6085500000000000
0.3750000000000001 0.0556500000000000 0.6250000000000000
0.3750000000000001 0.0269000000000000 0.6250000000000000
0.3585500000000000 0.0134500000000000 0.6085500000000000
0.4443500000000001 0.3750000000000001 0.6250000000000000
0.4731000000000000 0.3750000000000001 0.6250000000000000
0.4865500000000000 0.3585500000000000 0.6085500000000000
0.1250000000000000 0.4443500000000001 0.6250000000000000
0.1250000000000000 0.4731000000000000 0.6250000000000000
0.1414500000000000 0.4865500000000000 0.6085500000000000
0.0556500000000000 0.3750000000000001 0.8750000000000000
0.0269000000000000 0.3750000000000001 0.8750000000000000
0.0134500000000000 0.3585500000000000 0.8914500000000000
0.1250000000000000 0.0556500000000000 0.8750000000000000
0.1250000000000000 0.0269000000000000 0.8750000000000000
0.1414500000000000 0.0134500000000000 0.8914500000000000
0.4443500000000001 0.1250000000000000 0.8750000000000000
0.4731000000000000 0.1250000000000000 0.8750000000000000
0.4865500000000000 0.1414500000000000 0.8914500000000000
0.3750000000000001 0.4443500000000001 0.8750000000000000
0.3750000000000000 0.4731000000000000 0.8750000000000000
0.3585500000000000 0.4865500000000000 0.8914500000000000
0.1250000000000000 0.0556500000000000 0.6250000000000000
0.1250000000000000 0.0269000000000000 0.6250000000000000
0.1085500000000000 0.0134500000000000 0.6414500000000000
0.1250000000000000 0.4443500000000001 0.8750000000000000
0.1250000000000000 0.4731000000000000 0.8750000000000000
0.1085500000000000 0.4865500000000000 0.8585500000000000
0.0556500000000000 0.1250000000000000 0.8750000000000000
0.0269000000000000 0.1250000000000000 0.8750000000000000
0.0134500000000000 0.1085500000000000 0.8585500000000000
0.3750000000000001 0.0556500000000000 0.8750000000000000
0.3750000000000001 0.0269000000000000 0.8750000000000000
0.3914500000000000 0.0134500000000000 0.8585500000000000
0.4443500000000001 0.3750000000000001 0.8750000000000000
0.4731000000000000 0.3750000000000001 0.8750000000000000
0.4865500000000000 0.3914500000000000 0.8585500000000000
0.3750000000000001 0.4443500000000001 0.6250000000000000
0.3750000000000000 0.4731000000000000 0.6250000000000000
0.3914500000000000 0.4865500000000000 0.6414500000000000
0.0556500000000000 0.3750000000000001 0.6250000000000000
0.0269000000000000 0.3750000000000001 0.6250000000000000
0.0134500000000000 0.3914500000000000 0.6414500000000000
0.4443500000000001 0.1250000000000000 0.6250000000000000
0.4731000000000000 0.1250000000000000 0.6250000000000000
0.4865500000000000 0.1085500000000000 0.6414500000000000
0.3585500000000000 0.3914500000000000 0.9865499999999999
0.1085500000000000 0.3585500000000000 0.9865499999999999
0.1414500000000000 0.1085500000000000 0.9865499999999999
0.3914500000000000 0.1414500000000000 0.9865499999999999
0.3585500000000000 0.1085500000000000 0.5134500000000000
0.3914500000000000 0.3585500000000000 0.5134500000000000
0.1414500000000000 0.3914500000000000 0.5134500000000000
0.1085500000000000 0.1414500000000000 0.5134500000000000
0.4865500000000000 0.3585500000000000 0.8914500000000000
0.1414500000000000 0.4865500000000000 0.8914500000000000
0.0134500000000000 0.1414500000000000 0.8914500000000000
0.3585500000000000 0.0134500000000000 0.8914500000000000
0.4865500000000000 0.1414500000000000 0.6085500000000000
0.3585500000000000 0.4865500000000000 0.6085500000000000
0.0134500000000000 0.3585500000000000 0.6085500000000000
0.1414500000000000 0.0134500000000000 0.6085500000000000
0.3914500000000000 0.4865500000000000 0.8585500000000000
0.3914500000000000 0.0134500000000000 0.6414500000000000
0.4865500000000000 0.3914500000000000 0.6414500000000000
0.1085500000000000 0.4865500000000000 0.6414500000000000
0.0134500000000000 0.1085500000000000 0.6414500000000000
0.1085500000000000 0.0134500000000000 0.8585500000000000
0.4865500000000000 0.1085500000000000 0.8585500000000000
0.0134500000000000 0.3914500000000000 0.8585500000000000
0.1250000000000000 0.3750000000000001 0.8056500000000000
0.1250000000000000 0.3750000000000001 0.7768999999999999
0.1414500000000000 0.3585500000000000 0.7634500000000000
0.3750000000000001 0.3750000000000001 0.8056500000000000
0.3750000000000001 0.3750000000000001 0.7768999999999999
0.3914500000000000 0.3914500000000000 0.7634500000000000
0.3750000000000001 0.1250000000000000 0.8056500000000000
0.3750000000000001 0.1250000000000000 0.7768999999999999
0.3585500000000000 0.1414500000000000 0.7634500000000000
0.1250000000000000 0.1250000000000000 0.8056500000000000
0.1250000000000000 0.1250000000000000 0.7768999999999999
0.1085500000000000 0.1085500000000000 0.7634500000000000
0.1250000000000000 0.1250000000000000 0.6943500000000000
0.1250000000000000 0.1250000000000000 0.7231000000000000
0.1414500000000000 0.1414500000000000 0.7365500000000000
0.1250000000000000 0.3750000000000001 0.6943500000000000
0.1250000000000000 0.3750000000000001 0.7231000000000000
0.1085500000000000 0.3914500000000000 0.7365500000000000
0.3750000000000001 0.3750000000000001 0.6943500000000000
0.3750000000000001 0.3750000000000001 0.7231000000000000
0.3585500000000000 0.3585500000000000 0.7365500000000000
0.3750000000000001 0.1250000000000000 0.6943500000000000
0.3750000000000001 0.1250000000000000 0.7231000000000000
0.3914500000000000 0.1085500000000000 0.7365500000000000
0.3750000000000001 0.3056500000000000 0.8750000000000000
0.3750000000000001 0.2769000000000000 0.8750000000000000
0.3585500000000000 0.2634500000000000 0.8585499999999999
0.1250000000000000 0.1943500000000000 0.8750000000000000
0.1250000000000000 0.2231000000000000 0.8750000000000000
0.1414500000000000 0.2365500000000000 0.8585499999999999
0.1250000000000000 0.3056500000000000 0.6250000000000000
0.1250000000000000 0.2768999999999999 0.6250000000000000
0.1414500000000000 0.2634500000000000 0.6414500000000001
0.3750000000000001 0.1943500000000000 0.6250000000000000
0.3750000000000001 0.2231000000000000 0.6250000000000000
0.3585500000000000 0.2365500000000000 0.6414500000000001
0.1250000000000000 0.3056500000000000 0.8750000000000000
0.1250000000000000 0.2769000000000000 0.8750000000000000
0.1085500000000000 0.2634500000000000 0.8914499999999999
0.1250000000000000 0.1943500000000000 0.6250000000000000
0.1250000000000000 0.2231000000000000 0.6250000000000000
0.1085500000000000 0.2365500000000000 0.6085500000000000
0.3750000000000001 0.3056500000000000 0.6250000000000000
0.3750000000000001 0.2768999999999999 0.6250000000000000
0.3914500000000000 0.2634500000000000 0.6085500000000000
0.3750000000000001 0.1943500000000000 0.8750000000000000
0.3750000000000001 0.2231000000000000 0.8750000000000000
0.3914500000000000 0.2365500000000000 0.8914499999999999
0.3585500000000000 0.1414500000000000 0.7365500000000000
0.1085500000000000 0.1085500000000000 0.7365500000000000
0.1414500000000000 0.3585500000000000 0.7365500000000000
0.3914500000000000 0.3914500000000000 0.7365500000000000
0.3585500000000000 0.3585500000000000 0.7634500000000000
0.3914500000000000 0.1085500000000000 0.7634500000000000
0.1414500000000000 0.1414500000000000 0.7634500000000000
0.1085500000000000 0.3914500000000000 0.7634500000000000
0.1414500000000000 0.2365500000000000 0.6414500000000001
0.3585500000000000 0.2634500000000000 0.6414500000000001
0.3585500000000000 0.2365500000000000 0.8585499999999999
0.1414500000000000 0.2634500000000000 0.8585499999999999
0.3914500000000000 0.2365500000000000 0.6085500000000000
0.3914500000000000 0.2634500000000000 0.8914499999999999
0.1085500000000000 0.2365500000000000 0.8914499999999999
0.1085500000000000 0.2634500000000000 0.6085500000000000
0.3056500000000000 0.1250000000000000 0.8750000000000000
0.2769000000000000 0.1250000000000000 0.8750000000000000
0.2634500000000000 0.1414500000000000 0.8585499999999999
0.1943500000000000 0.3750000000000001 0.8750000000000000
0.2231000000000000 0.3750000000000001 0.8750000000000000
0.2365500000000000 0.3585500000000000 0.8585499999999999
0.3056500000000000 0.3750000000000001 0.6250000000000000
0.2769000000000000 0.3750000000000001 0.6250000000000000
0.2634500000000000 0.3585500000000000 0.6414500000000001
0.1943500000000000 0.1250000000000000 0.6250000000000000
0.2231000000000000 0.1250000000000000 0.6250000000000000
0.2365500000000000 0.1414500000000000 0.6414500000000001
0.3056500000000000 0.1250000000000000 0.6250000000000000
0.2768999999999999 0.1250000000000000 0.6250000000000000
0.2634500000000000 0.1085500000000000 0.6085500000000000
0.1943500000000000 0.3750000000000001 0.6250000000000000
0.2231000000000000 0.3750000000000001 0.6250000000000000
0.2365500000000000 0.3914500000000000 0.6085500000000000
0.3056500000000000 0.3750000000000001 0.8750000000000000
0.2769000000000000 0.3750000000000001 0.8750000000000000
0.2634500000000001 0.3914500000000000 0.8914499999999999
0.1943500000000000 0.1250000000000000 0.8750000000000000
0.2231000000000000 0.1250000000000000 0.8750000000000000
0.2365500000000000 0.1085500000000000 0.8914499999999999
0.2365500000000000 0.3585500000000000 0.6414500000000001
0.2634500000000000 0.1414500000000000 0.6414500000000001
0.2365500000000000 0.1414500000000000 0.8585499999999999
0.2634500000000001 0.3585500000000000 0.8585499999999999
0.2365500000000000 0.3914500000000000 0.8914499999999999
0.2634500000000000 0.1085500000000000 0.8914499999999999
0.2365500000000000 0.1085500000000000 0.6085500000000000
0.2634500000000000 0.3914500000000000 0.6085500000000000
0.1250000000000000 0.6250000000000000 0.0556500000000000
0.1250000000000000 0.6250000000000000 0.0269000000000000
0.1414500000000000 0.6085500000000000 0.0134500000000000
0.3750000000000001 0.6250000000000000 0.0556500000000000
0.3750000000000001 0.6250000000000000 0.0269000000000000
0.3914500000000000 0.6414500000000000 0.0134500000000000
0.3750000000000001 0.8750000000000000 0.0556500000000000
0.3750000000000001 0.8750000000000000 0.0269000000000000
0.3585500000000000 0.8914500000000000 0.0134500000000000
0.1250000000000000 0.8750000000000000 0.0556500000000000
0.1250000000000000 0.8750000000000000 0.0269000000000000
0.1085500000000000 0.8585500000000000 0.0134500000000000
0.1250000000000000 0.8750000000000000 0.4443500000000000
0.1250000000000000 0.8750000000000000 0.4731000000000000
0.1414500000000000 0.8914500000000000 0.4865500000000000
0.1250000000000000 0.6250000000000000 0.4443500000000000
0.1250000000000000 0.6250000000000000 0.4731000000000000
0.1085500000000000 0.6414500000000000 0.4865500000000000
0.3750000000000001 0.6250000000000000 0.4443500000000000
0.3750000000000000 0.6250000000000000 0.4731000000000000
0.3585500000000000 0.6085500000000000 0.4865500000000000
0.3750000000000001 0.8750000000000000 0.4443500000000000
0.3750000000000000 0.8750000000000000 0.4731000000000000
0.3914500000000000 0.8585500000000000 0.4865500000000000
0.0556500000000000 0.6250000000000000 0.1250000000000000
0.0269000000000000 0.6250000000000000 0.1250000000000000
0.0134500000000000 0.6414500000000000 0.1085500000000000
0.3749999999999999 0.5556500000000000 0.1250000000000000
0.3749999999999999 0.5269000000000000 0.1250000000000000
0.3585500000000000 0.5134500000000000 0.1085500000000000
0.4443500000000001 0.8750000000000000 0.1250000000000000
0.4731000000000000 0.8750000000000000 0.1250000000000000
0.4865500000000000 0.8585500000000000 0.1085500000000000
0.1250000000000000 0.9443500000000000 0.1250000000000000
0.1250000000000000 0.9731000000000001 0.1250000000000000
0.1414500000000000 0.9865499999999999 0.1085500000000000
0.0556500000000000 0.8750000000000000 0.3750000000000000
0.0269000000000000 0.8750000000000000 0.3750000000000000
0.0134500000000000 0.8585500000000000 0.3914500000000000
0.1250000000000000 0.5556500000000000 0.3750000000000000
0.1250000000000000 0.5269000000000000 0.3750000000000000
0.1414500000000000 0.5134500000000000 0.3914500000000000
0.4443500000000001 0.6250000000000000 0.3750000000000000
0.4731000000000000 0.6250000000000000 0.3750000000000000
0.4865500000000000 0.6414500000000000 0.3914500000000000
0.3750000000000001 0.9443500000000000 0.3750000000000000
0.3750000000000001 0.9731000000000001 0.3750000000000000
0.3585500000000000 0.9865499999999999 0.3914500000000000
0.1250000000000000 0.5556500000000000 0.1250000000000000
0.1250000000000000 0.5269000000000000 0.1250000000000000
0.1085500000000000 0.5134500000000000 0.1414500000000000
0.1250000000000000 0.9443500000000000 0.3750000000000000
0.1250000000000000 0.9731000000000001 0.3750000000000000
0.1085500000000000 0.9865499999999999 0.3585500000000000
0.0556500000000000 0.6250000000000000 0.3750000000000000
0.0269000000000000 0.6250000000000000 0.3750000000000000
0.0134500000000000 0.6085500000000000 0.3585500000000000
0.3749999999999999 0.5556500000000000 0.3750000000000000
0.3749999999999999 0.5269000000000000 0.3750000000000000
0.3914500000000000 0.5134500000000000 0.3585500000000000
0.4443500000000001 0.8750000000000000 0.3750000000000000
0.4731000000000000 0.8750000000000000 0.3750000000000000
0.4865500000000000 0.8914500000000000 0.3585500000000000
0.3750000000000001 0.9443500000000000 0.1250000000000000
0.3750000000000001 0.9731000000000001 0.1250000000000000
0.3914500000000000 0.9865499999999999 0.1414500000000000
0.0556500000000000 0.8750000000000000 0.1250000000000000
0.0269000000000000 0.8750000000000000 0.1250000000000000
0.0134500000000000 0.8914500000000000 0.1414500000000000
0.4443500000000001 0.6250000000000000 0.1250000000000000
0.4731000000000000 0.6250000000000000 0.1250000000000000
0.4865500000000000 0.6085500000000000 0.1414500000000000
0.3585500000000000 0.8914500000000000 0.4865500000000000
0.1085500000000000 0.8585500000000000 0.4865500000000000
0.1414500000000000 0.6085500000000000 0.4865500000000000
0.3914500000000000 0.6414500000000000 0.4865500000000000
0.3585500000000000 0.6085500000000000 0.0134500000000000
0.3914500000000000 0.8585500000000000 0.0134500000000000
0.1414500000000000 0.8914500000000000 0.0134500000000000
0.1085500000000000 0.6414500000000000 0.0134500000000000
0.4865500000000000 0.8585500000000000 0.3914500000000000
0.1414500000000000 0.9865499999999999 0.3914500000000000
0.0134500000000000 0.6414500000000000 0.3914500000000000
0.3585500000000000 0.5134500000000000 0.3914500000000000
0.4865500000000000 0.6414500000000000 0.1085500000000000
0.3585500000000000 0.9865499999999999 0.1085500000000000
0.0134500000000000 0.8585500000000000 0.1085500000000000
0.1414500000000000 0.5134500000000000 0.1085500000000000
0.3914500000000000 0.9865499999999999 0.3585500000000000
0.3914500000000000 0.5134500000000000 0.1414500000000000
0.4865500000000000 0.8914500000000000 0.1414500000000000
0.1085500000000000 0.9865499999999999 0.1414500000000000
0.0134500000000000 0.6085500000000000 0.1414500000000000
0.1085500000000000 0.5134500000000000 0.3585500000000000
0.4865500000000000 0.6085500000000000 0.3585500000000000
0.0134500000000000 0.8914500000000000 0.3585500000000000
0.1250000000000000 0.8750000000000000 0.3056500000000000
0.1250000000000000 0.8750000000000000 0.2769000000000000
0.1414500000000000 0.8585499999999999 0.2634500000000000
0.3750000000000001 0.8750000000000000 0.3056500000000000
0.3750000000000001 0.8750000000000000 0.2769000000000000
0.3914500000000000 0.8914499999999999 0.2634500000000000
0.3750000000000001 0.6250000000000000 0.3056500000000000
0.3750000000000001 0.6250000000000000 0.2769000000000000
0.3585500000000000 0.6414500000000001 0.2634500000000000
0.1250000000000000 0.6250000000000000 0.3056500000000000
0.1250000000000000 0.6250000000000000 0.2769000000000000
0.1085500000000000 0.6085500000000000 0.2634500000000000
0.1250000000000000 0.6250000000000000 0.1943500000000000
0.1250000000000000 0.6250000000000000 0.2231000000000000
0.1414500000000000 0.6414500000000001 0.2365500000000000
0.1250000000000000 0.8750000000000000 0.1943500000000000
0.1250000000000000 0.8750000000000000 0.2231000000000000
0.1085500000000000 0.8914499999999999 0.2365500000000000
0.3750000000000001 0.8750000000000000 0.1943500000000000
0.3750000000000001 0.8750000000000000 0.2231000000000000
0.3585500000000000 0.8585499999999999 0.2365500000000000
0.3750000000000001 0.6250000000000000 0.1943500000000000
0.3750000000000001 0.6250000000000000 0.2231000000000000
0.3914500000000000 0.6085500000000000 0.2365500000000000
0.3750000000000001 0.8056500000000000 0.3750000000000000
0.3750000000000001 0.7768999999999999 0.3750000000000000
0.3585500000000000 0.7634500000000000 0.3585500000000000
0.1250000000000000 0.6943500000000000 0.3750000000000000
0.1250000000000000 0.7231000000000000 0.3750000000000000
0.1414500000000000 0.7365500000000000 0.3585500000000000
0.1250000000000000 0.8056500000000000 0.1250000000000000
0.1250000000000000 0.7768999999999999 0.1250000000000000
0.1414500000000000 0.7634500000000000 0.1414500000000000
0.3750000000000001 0.6943500000000000 0.1250000000000000
0.3750000000000001 0.7231000000000000 0.1250000000000000
0.3585500000000000 0.7365500000000000 0.1414500000000000
0.1250000000000000 0.8056500000000000 0.3750000000000000
0.1250000000000000 0.7768999999999999 0.3750000000000000
0.1085500000000000 0.7634500000000000 0.3914500000000000
0.1250000000000000 0.6943500000000000 0.1250000000000000
0.1250000000000000 0.7231000000000000 0.1250000000000000
0.1085500000000000 0.7365500000000000 0.1085500000000000
0.3750000000000001 0.8056500000000000 0.1250000000000000
0.3750000000000001 0.7768999999999999 0.1250000000000000
0.3914500000000000 0.7634500000000000 0.1085500000000000
0.3750000000000001 0.6943500000000000 0.3750000000000000
0.3750000000000001 0.7231000000000000 0.3750000000000000
0.3914500000000000 0.7365500000000000 0.3914500000000000
0.3585500000000000 0.6414500000000001 0.2365500000000000
0.1085500000000000 0.6085500000000000 0.2365500000000000
0.1414500000000000 0.8585499999999999 0.2365500000000000
0.3914500000000000 0.8914499999999999 0.2365500000000000
0.3585500000000000 0.8585499999999999 0.2634500000000000
0.3914500000000000 0.6085500000000000 0.2634500000000000
0.1414500000000000 0.6414500000000001 0.2634500000000000
0.1085500000000000 0.8914499999999999 0.2634500000000000
0.1414500000000000 0.7365500000000000 0.1414500000000000
0.3585500000000000 0.7634500000000000 0.1414500000000000
0.3585500000000000 0.7365500000000000 0.3585500000000000
0.1414500000000000 0.7634500000000000 0.3585500000000000
0.3914500000000000 0.7365500000000000 0.1085500000000000
0.3914500000000000 0.7634500000000000 0.3914500000000000
0.1085500000000000 0.7365500000000000 0.3914500000000000
0.1085500000000000 0.7634500000000000 0.1085500000000000
0.3056500000000000 0.6250000000000000 0.3750000000000000
0.2769000000000000 0.6250000000000000 0.3750000000000000
0.2634500000000000 0.6414500000000000 0.3585500000000000
0.1943500000000000 0.8750000000000000 0.3750000000000000
0.2231000000000000 0.8750000000000000 0.3750000000000000
0.2365500000000000 0.8585500000000000 0.3585500000000000
0.3056500000000000 0.8750000000000000 0.1250000000000000
0.2769000000000000 0.8750000000000000 0.1250000000000000
0.2634500000000000 0.8585500000000000 0.1414500000000000
0.1943500000000000 0.6250000000000000 0.1250000000000000
0.2231000000000000 0.6250000000000000 0.1250000000000000
0.2365500000000000 0.6414500000000000 0.1414500000000000
0.3056500000000000 0.6250000000000000 0.1250000000000000
0.2768999999999999 0.6250000000000000 0.1250000000000000
0.2634500000000000 0.6085500000000000 0.1085500000000000
0.1943500000000000 0.8750000000000000 0.1250000000000000
0.2231000000000000 0.8750000000000000 0.1250000000000000
0.2365500000000000 0.8914500000000000 0.1085500000000000
0.3056500000000000 0.8750000000000000 0.3750000000000000
0.2769000000000000 0.8750000000000000 0.3750000000000000
0.2634500000000001 0.8914500000000000 0.3914500000000000
0.1943500000000000 0.6250000000000000 0.3750000000000000
0.2231000000000000 0.6250000000000000 0.3750000000000000
0.2365500000000000 0.6085500000000000 0.3914500000000000
0.2365500000000000 0.8585500000000000 0.1414500000000000
0.2634500000000000 0.6414500000000000 0.1414500000000000
0.2365500000000000 0.6414500000000000 0.3585500000000000
0.2634500000000001 0.8585500000000000 0.3585500000000000
0.2365500000000000 0.8914500000000000 0.3914500000000000
0.2634500000000000 0.6085500000000000 0.3914500000000000
0.2365500000000000 0.6085500000000000 0.1085500000000000
0.2634500000000000 0.8914500000000000 0.1085500000000000
0.1250000000000000 0.6250000000000000 0.5556500000000000
0.1250000000000000 0.6250000000000000 0.5269000000000000
0.1414500000000000 0.6085500000000000 0.5134500000000000
0.3750000000000000 0.6250000000000000 0.5556500000000000
0.3750000000000000 0.6250000000000000 0.5269000000000000
0.3914500000000000 0.6414500000000000 0.5134500000000000
0.3750000000000000 0.8750000000000000 0.5556500000000000
0.3750000000000000 0.8750000000000000 0.5269000000000000
0.3585500000000000 0.8914500000000000 0.5134500000000000
0.1250000000000000 0.8750000000000000 0.5556500000000000
0.1250000000000000 0.8750000000000000 0.5269000000000000
0.1085500000000000 0.8585500000000000 0.5134500000000000
0.1250000000000000 0.8749999999999999 0.9443500000000000
0.1250000000000000 0.8749999999999999 0.9731000000000001
0.1414500000000000 0.8914499999999999 0.9865499999999999
0.1250000000000000 0.6249999999999999 0.9443500000000000
0.1250000000000000 0.6249999999999999 0.9731000000000001
0.1085500000000000 0.6414499999999999 0.9865499999999999
0.3750000000000001 0.6249999999999999 0.9443500000000000
0.3750000000000001 0.6249999999999999 0.9731000000000001
0.3585500000000000 0.6085500000000000 0.9865499999999999
0.3750000000000001 0.8749999999999999 0.9443500000000000
0.3750000000000001 0.8749999999999999 0.9731000000000001
0.3914500000000001 0.8585499999999999 0.9865499999999999
0.0556500000000000 0.6250000000000000 0.6250000000000000
0.0269000000000000 0.6250000000000000 0.6250000000000000
0.0134500000000000 0.6414500000000000 0.6085500000000000
0.3750000000000000 0.5556500000000000 0.6250000000000000
0.3750000000000000 0.5269000000000001 0.6250000000000000
0.3585500000000000 0.5134500000000000 0.6085500000000000
0.4443500000000001 0.8750000000000000 0.6250000000000000
0.4731000000000000 0.8750000000000000 0.6250000000000000
0.4865500000000000 0.8585500000000000 0.6085500000000000
0.1250000000000000 0.9443500000000000 0.6250000000000000
0.1250000000000000 0.9731000000000001 0.6250000000000000
0.1414500000000000 0.9865499999999999 0.6085500000000000
0.0556500000000000 0.8750000000000000 0.8750000000000000
0.0269000000000000 0.8750000000000000 0.8750000000000000
0.0134500000000000 0.8585500000000000 0.8914500000000000
0.1250000000000000 0.5556500000000000 0.8750000000000000
0.1250000000000000 0.5269000000000001 0.8750000000000000
0.1414500000000000 0.5134500000000000 0.8914500000000000
0.4443500000000001 0.6250000000000000 0.8750000000000000
0.4731000000000000 0.6250000000000000 0.8750000000000000
0.4865500000000000 0.6414500000000000 0.8914500000000000
0.3750000000000001 0.9443500000000000 0.8750000000000000
0.3750000000000001 0.9731000000000001 0.8750000000000000
0.3585500000000000 0.9865499999999999 0.8914500000000000
0.1250000000000000 0.5556500000000000 0.6250000000000000
0.1250000000000000 0.5269000000000001 0.6250000000000000
0.1085500000000000 0.5134500000000000 0.6414500000000000
0.1250000000000000 0.9443500000000000 0.8750000000000000
0.1250000000000000 0.9731000000000001 0.8750000000000000
0.1085500000000000 0.9865499999999999 0.8585500000000000
0.0556500000000000 0.6250000000000000 0.8750000000000000
0.0269000000000000 0.6250000000000000 0.8750000000000000
0.0134500000000000 0.6085500000000001 0.8585500000000000
0.3750000000000000 0.5556500000000000 0.8750000000000000
0.3750000000000000 0.5269000000000001 0.8750000000000000
0.3914500000000000 0.5134500000000000 0.8585500000000000
0.4443500000000001 0.8750000000000000 0.8750000000000000
0.4731000000000000 0.8750000000000000 0.8750000000000000
0.4865500000000000 0.8914500000000000 0.8585500000000000
0.3750000000000001 0.9443500000000000 0.6250000000000000
0.3750000000000001 0.9731000000000001 0.6250000000000000
0.3914500000000001 0.9865499999999999 0.6414500000000000
0.0556500000000000 0.8750000000000000 0.6250000000000000
0.0269000000000000 0.8750000000000000 0.6250000000000000
0.0134500000000000 0.8914500000000000 0.6414500000000000
0.4443500000000001 0.6250000000000000 0.6250000000000000
0.4731000000000000 0.6250000000000000 0.6250000000000000
0.4865500000000000 0.6085500000000001 0.6414500000000000
0.3585500000000000 0.8914499999999999 0.9865499999999999
0.1085500000000000 0.8585499999999999 0.9865499999999999
0.1414500000000000 0.6085500000000000 0.9865499999999999
0.3914500000000001 0.6414499999999999 0.9865499999999999
0.3585500000000000 0.6085500000000000 0.5134500000000000
0.3914500000000000 0.8585500000000000 0.5134500000000000
0.1414500000000000 0.8914500000000000 0.5134500000000000
0.1085500000000000 0.6414500000000000 0.5134500000000000
0.4865500000000000 0.8585500000000000 0.8914500000000000
0.1414500000000000 0.9865499999999999 0.8914500000000000
0.0134500000000000 0.6414500000000000 0.8914500000000000
0.3585500000000000 0.5134500000000000 0.8914500000000000
0.4865500000000000 0.6414500000000000 0.6085500000000000
0.3585500000000000 0.9865499999999999 0.6085500000000000
0.0134500000000000 0.8585500000000000 0.6085500000000000
0.1414500000000000 0.5134500000000000 0.6085500000000000
0.3914500000000001 0.9865499999999999 0.8585500000000000
0.3914500000000000 0.5134500000000000 0.6414500000000000
0.4865500000000000 0.8914500000000000 0.6414500000000000
0.1085500000000000 0.9865499999999999 0.6414500000000000
0.0134500000000000 0.6085500000000001 0.6414500000000000
0.1085500000000000 0.5134500000000000 0.8585500000000000
0.4865500000000000 0.6085500000000001 0.8585500000000000
0.0134500000000000 0.8914500000000000 0.8585500000000000
0.1250000000000000 0.8750000000000000 0.8056500000000000
0.1250000000000000 0.8750000000000000 0.7768999999999999
0.1414500000000000 0.8585499999999999 0.7634500000000000
0.3750000000000001 0.8750000000000000 0.8056500000000000
0.3750000000000001 0.8750000000000000 0.7768999999999999
0.3914500000000001 0.8914499999999999 0.7634500000000000
0.3750000000000001 0.6250000000000000 0.8056500000000000
0.3750000000000001 0.6250000000000000 0.7768999999999999
0.3585500000000000 0.6414500000000001 0.7634500000000000
0.1250000000000000 0.6250000000000000 0.8056500000000000
0.1250000000000000 0.6250000000000000 0.7768999999999999
0.1085500000000000 0.6085500000000001 0.7634500000000000
0.1250000000000000 0.6250000000000000 0.6943500000000000
0.1250000000000000 0.6250000000000000 0.7231000000000000
0.1414500000000000 0.6414500000000001 0.7365500000000000
0.1250000000000000 0.8750000000000000 0.6943500000000000
0.1250000000000000 0.8750000000000000 0.7231000000000000
0.1085500000000000 0.8914499999999999 0.7365500000000000
0.3750000000000001 0.8750000000000000 0.6943500000000000
0.3750000000000001 0.8750000000000000 0.7231000000000000
0.3585500000000000 0.8585499999999999 0.7365500000000000
0.3750000000000001 0.6250000000000000 0.6943500000000000
0.3750000000000001 0.6250000000000000 0.7231000000000000
0.3914500000000001 0.6085500000000001 0.7365500000000000
0.3750000000000001 0.8056500000000000 0.8750000000000000
0.3750000000000001 0.7768999999999999 0.8750000000000000
0.3585500000000000 0.7634500000000000 0.8585499999999999
0.1250000000000000 0.6943500000000000 0.8750000000000000
0.1250000000000000 0.7231000000000000 0.8750000000000000
0.1414500000000000 0.7365500000000000 0.8585499999999999
0.1250000000000000 0.8056500000000000 0.6250000000000000
0.1250000000000000 0.7768999999999999 0.6250000000000000
0.1414500000000000 0.7634500000000000 0.6414500000000001
0.3750000000000001 0.6943500000000000 0.6250000000000000
0.3750000000000001 0.7231000000000000 0.6250000000000000
0.3585500000000000 0.7365500000000000 0.6414500000000001
0.1250000000000000 0.8056500000000000 0.8750000000000000
0.1250000000000000 0.7768999999999999 0.8750000000000000
0.1085500000000000 0.7634500000000000 0.8914499999999999
0.1250000000000000 0.6943500000000000 0.6250000000000000
0.1250000000000000 0.7231000000000000 0.6250000000000000
0.1085500000000000 0.7365500000000000 0.6085500000000000
0.3750000000000001 0.8056500000000000 0.6250000000000000
0.3750000000000001 0.7768999999999999 0.6250000000000000
0.3914500000000001 0.7634500000000000 0.6085500000000000
0.3750000000000001 0.6943500000000000 0.8750000000000000
0.3750000000000001 0.7231000000000000 0.8750000000000000
0.3914500000000001 0.7365500000000000 0.8914499999999999
0.3585500000000000 0.6414500000000001 0.7365500000000000
0.1085500000000000 0.6085500000000001 0.7365500000000000
0.1414500000000000 0.8585499999999999 0.7365500000000000
0.3914500000000001 0.8914499999999999 0.7365500000000000
0.3585500000000000 0.8585499999999999 0.7634500000000000
0.3914500000000001 0.6085500000000001 0.7634500000000000
0.1414500000000000 0.6414500000000001 0.7634500000000000
0.1085500000000000 0.8914499999999999 0.7634500000000000
0.1414500000000000 0.7365500000000000 0.6414500000000001
0.3585500000000000 0.7634500000000000 0.6414500000000001
0.3585500000000000 0.7365500000000000 0.8585499999999999
0.1414500000000000 0.7634500000000000 0.8585499999999999
0.3914500000000001 0.7365500000000000 0.6085500000000000
0.3914500000000001 0.7634500000000000 0.8914499999999999
0.1085500000000000 0.7365500000000000 0.8914499999999999
0.1085500000000000 0.7634500000000000 0.6085500000000000
0.3056500000000000 0.6250000000000000 0.8750000000000000
0.2768999999999999 0.6250000000000000 0.8750000000000000
0.2634500000000000 0.6414500000000000 0.8585499999999999
0.1943500000000000 0.8750000000000000 0.8750000000000000
0.2231000000000000 0.8750000000000000 0.8750000000000000
0.2365500000000000 0.8585500000000000 0.8585499999999999
0.3056500000000000 0.8750000000000000 0.6250000000000000
0.2768999999999999 0.8750000000000000 0.6250000000000000
0.2634500000000000 0.8585500000000000 0.6414500000000001
0.1943500000000000 0.6250000000000000 0.6250000000000000
0.2231000000000000 0.6250000000000000 0.6250000000000000
0.2365500000000000 0.6414500000000000 0.6414500000000001
0.3056499999999999 0.6250000000000000 0.6250000000000000
0.2768999999999999 0.6250000000000000 0.6250000000000000
0.2634500000000000 0.6085500000000001 0.6085500000000000
0.1943500000000000 0.8750000000000000 0.6250000000000000
0.2231000000000000 0.8750000000000000 0.6250000000000000
0.2365500000000000 0.8914500000000000 0.6085500000000000
0.3056500000000000 0.8750000000000000 0.8750000000000000
0.2769000000000000 0.8750000000000000 0.8750000000000000
0.2634500000000001 0.8914500000000000 0.8914499999999999
0.1943500000000000 0.6250000000000000 0.8750000000000000
0.2231000000000000 0.6250000000000000 0.8750000000000000
0.2365500000000000 0.6085500000000001 0.8914499999999999
0.2365500000000000 0.8585500000000000 0.6414500000000001
0.2634500000000000 0.6414500000000000 0.6414500000000001
0.2365500000000000 0.6414500000000000 0.8585499999999999
0.2634500000000001 0.8585500000000000 0.8585499999999999
0.2365500000000000 0.8914500000000000 0.8914499999999999
0.2634500000000000 0.6085500000000001 0.8914499999999999
0.2365500000000000 0.6085500000000001 0.6085500000000000
0.2634500000000000 0.8914500000000000 0.6085500000000000
0.6250000000000000 0.1250000000000000 0.0556500000000000
0.6250000000000000 0.1250000000000000 0.0269000000000000
0.6414500000000000 0.1085500000000000 0.0134500000000000
0.8750000000000000 0.1250000000000000 0.0556500000000000
0.8750000000000000 0.1250000000000000 0.0269000000000000
0.8914500000000000 0.1414500000000000 0.0134500000000000
0.8750000000000000 0.3750000000000000 0.0556500000000000
0.8750000000000000 0.3750000000000000 0.0269000000000000
0.8585500000000000 0.3914500000000000 0.0134500000000000
0.6250000000000000 0.3750000000000000 0.0556500000000000
0.6250000000000000 0.3750000000000000 0.0269000000000000
0.6085500000000000 0.3585500000000000 0.0134500000000000
0.6250000000000000 0.3750000000000000 0.4443500000000000
0.6250000000000000 0.3749999999999999 0.4731000000000000
0.6414500000000000 0.3914500000000000 0.4865500000000000
0.6250000000000000 0.1250000000000000 0.4443500000000000
0.6250000000000000 0.1250000000000000 0.4731000000000000
0.6085500000000000 0.1414500000000000 0.4865500000000000
0.8750000000000000 0.1250000000000000 0.4443500000000000
0.8750000000000000 0.1250000000000000 0.4731000000000000
0.8585500000000000 0.1085500000000000 0.4865500000000000
0.8750000000000000 0.3750000000000000 0.4443500000000000
0.8750000000000000 0.3749999999999999 0.4731000000000000
0.8914500000000000 0.3585500000000000 0.4865500000000000
0.5556500000000000 0.1250000000000000 0.1250000000000000
0.5269000000000000 0.1250000000000000 0.1250000000000000
0.5134500000000000 0.1414500000000000 0.1085500000000000
0.8750000000000000 0.0556500000000000 0.1250000000000000
0.8750000000000000 0.0269000000000000 0.1250000000000000
0.8585500000000000 0.0134500000000000 0.1085500000000000
0.9443500000000000 0.3750000000000000 0.1250000000000000
0.9731000000000001 0.3750000000000000 0.1250000000000000
0.9865499999999999 0.3585500000000000 0.1085500000000000
0.6250000000000000 0.4443500000000000 0.1250000000000000
0.6250000000000000 0.4731000000000000 0.1250000000000000
0.6414500000000000 0.4865500000000000 0.1085500000000000
0.5556500000000000 0.3750000000000000 0.3750000000000000
0.5269000000000000 0.3750000000000000 0.3750000000000000
0.5134500000000000 0.3585500000000000 0.3914500000000000
0.6250000000000000 0.0556500000000000 0.3750000000000000
0.6250000000000000 0.0269000000000000 0.3750000000000000
0.6414500000000000 0.0134500000000000 0.3914500000000000
0.9443500000000000 0.1250000000000000 0.3750000000000000
0.9731000000000001 0.1250000000000000 0.3750000000000000
0.9865499999999999 0.1414500000000000 0.3914500000000000
0.8750000000000000 0.4443500000000000 0.3750000000000000
0.8750000000000000 0.4731000000000000 0.3750000000000000
0.8585500000000000 0.4865500000000000 0.3914500000000000
0.6250000000000000 0.0556500000000000 0.1250000000000000
0.6250000000000000 0.0269000000000000 0.1250000000000000
0.6085500000000000 0.0134500000000000 0.1414500000000000
0.6250000000000000 0.4443500000000000 0.3750000000000000
0.6250000000000000 0.4731000000000000 0.3750000000000000
0.6085500000000000 0.4865500000000000 0.3585500000000000
0.5556500000000000 0.1250000000000000 0.3750000000000000
0.5269000000000000 0.1250000000000000 0.3750000000000000
0.5134500000000000 0.1085500000000000 0.3585500000000000
0.8750000000000000 0.0556500000000000 0.3750000000000000
0.8750000000000000 0.0269000000000000 0.3750000000000000
0.8914500000000000 0.0134500000000000 0.3585500000000000
0.9443500000000000 0.3750000000000000 0.3750000000000000
0.9731000000000001 0.3750000000000000 0.3750000000000000
0.9865499999999999 0.3914500000000000 0.3585500000000000
0.8750000000000000 0.4443500000000000 0.1250000000000000
0.8750000000000000 0.4731000000000000 0.1250000000000000
0.8914500000000000 0.4865500000000000 0.1414500000000000
0.5556500000000000 0.3750000000000000 0.1250000000000000
0.5269000000000000 0.3750000000000000 0.1250000000000000
0.5134500000000000 0.3914500000000000 0.1414500000000000
0.9443500000000000 0.1250000000000000 0.1250000000000000
0.9731000000000001 0.1250000000000000 0.1250000000000000
0.9865499999999999 0.1085500000000000 0.1414500000000000
0.8585500000000000 0.3914500000000000 0.4865500000000000
0.6085500000000000 0.3585500000000000 0.4865500000000000
0.6414500000000000 0.1085500000000000 0.4865500000000000
0.8914500000000000 0.1414500000000000 0.4865500000000000
0.8585500000000000 0.1085500000000000 0.0134500000000000
0.8914500000000000 0.3585500000000000 0.0134500000000000
0.6414500000000000 0.3914500000000000 0.0134500000000000
0.6085500000000000 0.1414500000000000 0.0134500000000000
0.9865499999999999 0.3585500000000000 0.3914500000000000
0.6414500000000000 0.4865500000000000 0.3914500000000000
0.5134500000000000 0.1414500000000000 0.3914500000000000
0.8585500000000000 0.0134500000000000 0.3914500000000000
0.9865499999999999 0.1414500000000000 0.1085500000000000
0.8585500000000000 0.4865500000000000 0.1085500000000000
0.5134500000000000 0.3585500000000000 0.1085500000000000
0.6414500000000000 0.0134500000000000 0.1085500000000000
0.8914500000000000 0.4865500000000000 0.3585500000000000
0.8914500000000000 0.0134500000000000 0.1414500000000000
0.9865499999999999 0.3914500000000000 0.1414500000000000
0.6085500000000000 0.4865500000000000 0.1414500000000000
0.5134500000000000 0.1085500000000000 0.1414500000000000
0.6085500000000000 0.0134500000000000 0.3585500000000000
0.9865499999999999 0.1085500000000000 0.3585500000000000
0.5134500000000000 0.3914500000000000 0.3585500000000000
0.6250000000000000 0.3750000000000000 0.3056500000000000
0.6250000000000000 0.3750000000000000 0.2769000000000000
0.6414500000000000 0.3585500000000000 0.2634500000000000
0.8750000000000000 0.3750000000000000 0.3056500000000000
0.8750000000000000 0.3750000000000000 0.2769000000000000
0.8914500000000000 0.3914500000000000 0.2634500000000000
0.8750000000000000 0.1250000000000000 0.3056500000000000
0.8750000000000000 0.1250000000000000 0.2769000000000000
0.8585500000000000 0.1414500000000000 0.2634500000000000
0.6250000000000000 0.1250000000000000 0.3056500000000000
0.6250000000000000 0.1250000000000000 0.2769000000000000
0.6085500000000000 0.1085500000000000 0.2634500000000000
0.6250000000000000 0.1250000000000000 0.1943500000000000
0.6250000000000000 0.1250000000000000 0.2231000000000000
0.6414500000000000 0.1414500000000000 0.2365500000000000
0.6250000000000000 0.3750000000000000 0.1943500000000000
0.6250000000000000 0.3750000000000000 0.2231000000000000
0.6085500000000000 0.3914500000000000 0.2365500000000000
0.8750000000000000 0.3750000000000000 0.1943500000000000
0.8750000000000000 0.3750000000000000 0.2231000000000000
0.8585500000000000 0.3585500000000000 0.2365500000000000
0.8750000000000000 0.1250000000000000 0.1943500000000000
0.8750000000000000 0.1250000000000000 0.2231000000000000
0.8914500000000000 0.1085500000000000 0.2365500000000000
0.8750000000000000 0.3056500000000000 0.3750000000000000
0.8750000000000000 0.2769000000000000 0.3750000000000000
0.8585500000000000 0.2634500000000001 0.3585500000000000
0.6250000000000000 0.1943500000000000 0.3750000000000000
0.6250000000000000 0.2231000000000000 0.3750000000000000
0.6414500000000000 0.2365500000000000 0.3585500000000000
0.6250000000000000 0.3056500000000000 0.1250000000000000
0.6250000000000000 0.2769000000000000 0.1250000000000000
0.6414500000000000 0.2634500000000000 0.1414500000000000
0.8750000000000000 0.1943500000000000 0.1250000000000000
0.8750000000000000 0.2231000000000000 0.1250000000000000
0.8585500000000000 0.2365500000000000 0.1414500000000000
0.6250000000000000 0.3056500000000000 0.3750000000000000
0.6250000000000000 0.2769000000000000 0.3750000000000000
0.6085500000000000 0.2634500000000001 0.3914500000000000
0.6250000000000000 0.1943500000000000 0.1250000000000000
0.6250000000000000 0.2231000000000000 0.1250000000000000
0.6085500000000000 0.2365500000000000 0.1085500000000000
0.8750000000000000 0.3056500000000000 0.1250000000000000
0.8750000000000000 0.2769000000000000 0.1250000000000000
0.8914500000000000 0.2634500000000000 0.1085500000000000
0.8750000000000000 0.1943500000000000 0.3750000000000000
0.8750000000000000 0.2231000000000000 0.3750000000000000
0.8914500000000000 0.2365500000000000 0.3914500000000000
0.8585500000000000 0.1414500000000000 0.2365500000000000
0.6085500000000000 0.1085500000000000 0.2365500000000000
0.6414500000000000 0.3585500000000000 0.2365500000000000
0.8914500000000000 0.3914500000000000 0.2365500000000000
0.8585500000000000 0.3585500000000000 0.2634500000000000
0.8914500000000000 0.1085500000000000 0.2634500000000000
0.6414500000000000 0.1414500000000000 0.2634500000000000
0.6085500000000000 0.3914500000000000 0.2634500000000000
0.6414500000000000 0.2365500000000000 0.1414500000000000
0.8585500000000000 0.2634500000000000 0.1414500000000000
0.8585500000000000 0.2365500000000000 0.3585500000000000
0.6414500000000000 0.2634500000000001 0.3585500000000000
0.8914500000000000 0.2365500000000000 0.1085500000000000
0.8914500000000000 0.2634500000000001 0.3914500000000000
0.6085500000000000 0.2365500000000000 0.3914500000000000
0.6085500000000000 0.2634500000000000 0.1085500000000000
0.8056500000000000 0.1250000000000000 0.3750000000000000
0.7768999999999999 0.1250000000000000 0.3750000000000000
0.7634500000000000 0.1414500000000000 0.3585500000000000
0.6943500000000000 0.3750000000000000 0.3750000000000000
0.7231000000000000 0.3750000000000000 0.3750000000000000
0.7365500000000000 0.3585500000000000 0.3585500000000000
0.8056500000000000 0.3750000000000000 0.1250000000000000
0.7768999999999999 0.3750000000000000 0.1250000000000000
0.7634500000000000 0.3585500000000000 0.1414500000000000
0.6943500000000000 0.1250000000000000 0.1250000000000000
0.7231000000000000 0.1250000000000000 0.1250000000000000
0.7365500000000000 0.1414500000000000 0.1414500000000000
0.8056500000000000 0.1250000000000000 0.1250000000000000
0.7768999999999999 0.1250000000000000 0.1250000000000000
0.7634500000000000 0.1085500000000000 0.1085500000000000
0.6943500000000000 0.3750000000000000 0.1250000000000000
0.7231000000000000 0.3750000000000000 0.1250000000000000
0.7365500000000000 0.3914500000000000 0.1085500000000000
0.8056500000000000 0.3750000000000000 0.3750000000000000
0.7768999999999999 0.3750000000000000 0.3750000000000000
0.7634500000000000 0.3914500000000000 0.3914500000000000
0.6943500000000000 0.1250000000000000 0.3750000000000000
0.7231000000000000 0.1250000000000000 0.3750000000000000
0.7365500000000000 0.1085500000000000 0.3914500000000000
0.7365500000000000 0.3585500000000000 0.1414500000000000
0.7634500000000000 0.1414500000000000 0.1414500000000000
0.7365500000000000 0.1414500000000000 0.3585500000000000
0.7634500000000000 0.3585500000000000 0.3585500000000000
0.7365500000000000 0.3914500000000000 0.3914500000000000
0.7634500000000000 0.1085500000000000 0.3914500000000000
0.7365500000000000 0.1085500000000000 0.1085500000000000
0.7634500000000000 0.3914500000000000 0.1085500000000000
0.6250000000000000 0.1250000000000000 0.5556500000000000
0.6250000000000000 0.1250000000000000 0.5269000000000000
0.6414500000000000 0.1085500000000000 0.5134500000000000
0.8750000000000000 0.1250000000000000 0.5556500000000000
0.8750000000000000 0.1250000000000000 0.5269000000000000
0.8914500000000000 0.1414500000000000 0.5134500000000000
0.8750000000000000 0.3749999999999999 0.5556500000000000
0.8750000000000000 0.3749999999999999 0.5269000000000000
0.8585500000000000 0.3914500000000000 0.5134500000000000
0.6250000000000000 0.3749999999999999 0.5556500000000000
0.6250000000000000 0.3749999999999999 0.5269000000000000
0.6085500000000000 0.3585500000000000 0.5134500000000000
0.6249999999999999 0.3750000000000001 0.9443500000000000
0.6249999999999999 0.3750000000000001 0.9731000000000001
0.6414499999999999 0.3914500000000000 0.9865499999999999
0.6249999999999999 0.1250000000000000 0.9443500000000000
0.6249999999999999 0.1250000000000000 0.9731000000000001
0.6085500000000000 0.1414500000000000 0.9865499999999999
0.8749999999999999 0.1250000000000000 0.9443500000000000
0.8749999999999999 0.1250000000000000 0.9731000000000001
0.8585499999999999 0.1085500000000000 0.9865499999999999
0.8749999999999999 0.3750000000000001 0.9443500000000000
0.8749999999999999 0.3750000000000001 0.9731000000000001
0.8914499999999999 0.3585500000000000 0.9865499999999999
0.5556500000000000 0.1250000000000000 0.6250000000000000
0.5269000000000001 0.1250000000000000 0.6250000000000000
0.5134500000000000 0.1414500000000000 0.6085500000000000
0.8750000000000000 0.0556500000000000 0.6250000000000000
0.8750000000000000 0.0269000000000000 0.6250000000000000
0.8585500000000000 0.0134500000000000 0.6085500000000000
0.9443500000000000 0.3750000000000001 0.6250000000000000
0.9731000000000001 0.3750000000000001 0.6250000000000000
0.9865499999999999 0.3585500000000000 0.6085500000000000
0.6250000000000000 0.4443500000000001 0.6250000000000000
0.6250000000000000 0.4731000000000000 0.6250000000000000
0.6414500000000000 0.4865500000000000 0.6085500000000000
0.5556500000000000 0.3750000000000001 0.8750000000000000
0.5269000000000001 0.3750000000000001 0.8750000000000000
0.5134500000000000 0.3585500000000000 0.8914500000000000
0.6250000000000000 0.0556500000000000 0.8750000000000000
0.6250000000000000 0.0269000000000000 0.8750000000000000
0.6414500000000000 0.0134500000000000 0.8914500000000000
0.9443500000000000 0.1250000000000000 0.8750000000000000
0.9731000000000001 0.1250000000000000 0.8750000000000000
0.9865499999999999 0.1414500000000000 0.8914500000000000
0.8750000000000000 0.4443500000000001 0.8750000000000000
0.8750000000000000 0.4731000000000000 0.8750000000000000
0.8585500000000000 0.4865500000000000 0.8914500000000000
0.6250000000000000 0.0556500000000000 0.6250000000000000
0.6250000000000000 0.0269000000000000 0.6250000000000000
0.6085500000000001 0.0134500000000000 0.6414500000000000
0.6250000000000000 0.4443500000000001 0.8750000000000000
0.6250000000000000 0.4731000000000000 0.8750000000000000
0.6085500000000001 0.4865500000000000 0.8585500000000000
0.5556500000000000 0.1250000000000000 0.8750000000000000
0.5269000000000001 0.1250000000000000 0.8750000000000000
0.5134500000000000 0.1085500000000000 0.8585500000000000
0.8750000000000000 0.0556500000000000 0.8750000000000000
0.8750000000000000 0.0269000000000000 0.8750000000000000
0.8914500000000000 0.0134500000000000 0.8585500000000000
0.9443500000000000 0.3750000000000001 0.8750000000000000
0.9731000000000001 0.3750000000000001 0.8750000000000000
0.9865499999999999 0.3914500000000000 0.8585500000000000
0.8750000000000000 0.4443500000000001 0.6250000000000000
0.8750000000000000 0.4731000000000000 0.6250000000000000
0.8914500000000000 0.4865500000000000 0.6414500000000000
0.5556500000000000 0.3750000000000001 0.6250000000000000
0.5269000000000001 0.3750000000000001 0.6250000000000000
0.5134500000000000 0.3914500000000000 0.6414500000000000
0.9443500000000000 0.1250000000000000 0.6250000000000000
0.9731000000000001 0.1250000000000000 0.6250000000000000
0.9865499999999999 0.1085500000000000 0.6414500000000000
0.8585499999999999 0.3914500000000000 0.9865499999999999
0.6085500000000000 0.3585500000000000 0.9865499999999999
0.6414499999999999 0.1085500000000000 0.9865499999999999
0.8914499999999999 0.1414500000000000 0.9865499999999999
0.8585500000000000 0.1085500000000000 0.5134500000000000
0.8914500000000000 0.3585500000000000 0.5134500000000000
0.6414500000000000 0.3914500000000000 0.5134500000000000
0.6085500000000000 0.1414500000000000 0.5134500000000000
0.9865499999999999 0.3585500000000000 0.8914500000000000
0.6414500000000000 0.4865500000000000 0.8914500000000000
0.5134500000000000 0.1414500000000000 0.8914500000000000
0.8585500000000000 0.0134500000000000 0.8914500000000000
0.9865499999999999 0.1414500000000000 0.6085500000000000
0.8585500000000000 0.4865500000000000 0.6085500000000000
0.5134500000000000 0.3585500000000000 0.6085500000000000
0.6414500000000000 0.0134500000000000 0.6085500000000000
0.8914500000000000 0.4865500000000000 0.8585500000000000
0.8914500000000000 0.0134500000000000 0.6414500000000000
0.9865499999999999 0.3914500000000000 0.6414500000000000
0.6085500000000001 0.4865500000000000 0.6414500000000000
0.5134500000000000 0.1085500000000000 0.6414500000000000
0.6085500000000001 0.0134500000000000 0.8585500000000000
0.9865499999999999 0.1085500000000000 0.8585500000000000
0.5134500000000000 0.3914500000000000 0.8585500000000000
0.6250000000000000 0.3750000000000001 0.8056500000000000
0.6250000000000000 0.3750000000000001 0.7768999999999999
0.6414500000000000 0.3585500000000000 0.7634500000000000
0.8750000000000000 0.3750000000000001 0.8056500000000000
0.8750000000000000 0.3750000000000001 0.7768999999999999
0.8914500000000000 0.3914500000000000 0.7634500000000000
0.8750000000000000 0.1250000000000000 0.8056500000000000
0.8750000000000000 0.1250000000000000 0.7768999999999999
0.8585500000000000 0.1414500000000000 0.7634500000000000
0.6250000000000000 0.1250000000000000 0.8056500000000000
0.6250000000000000 0.1250000000000000 0.7768999999999999
0.6085500000000001 0.1085500000000000 0.7634500000000000
0.6250000000000000 0.1250000000000000 0.6943500000000000
0.6250000000000000 0.1250000000000000 0.7231000000000000
0.6414500000000000 0.1414500000000000 0.7365500000000000
0.6250000000000000 0.3750000000000001 0.6943500000000000
0.6250000000000000 0.3750000000000001 0.7231000000000000
0.6085500000000001 0.3914500000000000 0.7365500000000000
0.8750000000000000 0.3750000000000001 0.6943500000000000
0.8750000000000000 0.3750000000000001 0.7231000000000000
0.8585500000000000 0.3585500000000000 0.7365500000000000
0.8750000000000000 0.1250000000000000 0.6943500000000000
0.8750000000000000 0.1250000000000000 0.7231000000000000
0.8914500000000000 0.1085500000000000 0.7365500000000000
0.8750000000000000 0.3056500000000000 0.8750000000000000
0.8750000000000000 0.2769000000000000 0.8750000000000000
0.8585500000000000 0.2634500000000000 0.8585499999999999
0.6250000000000000 0.1943500000000000 0.8750000000000000
0.6250000000000000 0.2231000000000000 0.8750000000000000
0.6414500000000000 0.2365500000000000 0.8585499999999999
0.6250000000000000 0.3056500000000000 0.6250000000000000
0.6250000000000000 0.2768999999999999 0.6250000000000000
0.6414500000000000 0.2634500000000000 0.6414500000000001
0.8750000000000000 0.1943500000000000 0.6250000000000000
0.8750000000000000 0.2231000000000000 0.6250000000000000
0.8585500000000000 0.2365500000000000 0.6414500000000001
0.6250000000000000 0.3056500000000000 0.8750000000000000
0.6250000000000000 0.2769000000000000 0.8750000000000000
0.6085500000000001 0.2634500000000000 0.8914499999999999
0.6250000000000000 0.1943500000000000 0.6250000000000000
0.6250000000000000 0.2231000000000000 0.6250000000000000
0.6085500000000001 0.2365500000000000 0.6085500000000000
0.8750000000000000 0.3056500000000000 0.6250000000000000
0.8750000000000000 0.2768999999999999 0.6250000000000000
0.8914500000000000 0.2634500000000000 0.6085500000000000
0.8750000000000000 0.1943500000000000 0.8750000000000000
0.8750000000000000 0.2231000000000000 0.8750000000000000
0.8914500000000000 0.2365500000000000 0.8914499999999999
0.8585500000000000 0.1414500000000000 0.7365500000000000
0.6085500000000001 0.1085500000000000 0.7365500000000000
0.6414500000000000 0.3585500000000000 0.7365500000000000
0.8914500000000000 0.3914500000000000 0.7365500000000000
0.8585500000000000 0.3585500000000000 0.7634500000000000
0.8914500000000000 0.1085500000000000 0.7634500000000000
0.6414500000000000 0.1414500000000000 0.7634500000000000
0.6085500000000001 0.3914500000000000 0.7634500000000000
0.6414500000000000 0.2365500000000000 0.6414500000000001
0.8585500000000000 0.2634500000000000 0.6414500000000001
0.8585500000000000 0.2365500000000000 0.8585499999999999
0.6414500000000000 0.2634500000000000 0.8585499999999999
0.8914500000000000 0.2365500000000000 0.6085500000000000
0.8914500000000000 0.2634500000000000 0.8914499999999999
0.6085500000000001 0.2365500000000000 0.8914499999999999
0.6085500000000001 0.2634500000000000 0.6085500000000000
0.8056500000000000 0.1250000000000000 0.8750000000000000
0.7768999999999999 0.1250000000000000 0.8750000000000000
0.7634500000000000 0.1414500000000000 0.8585499999999999
0.6943500000000000 0.3750000000000001 0.8750000000000000
0.7231000000000000 0.3750000000000001 0.8750000000000000
0.7365500000000000 0.3585500000000000 0.8585499999999999
0.8056500000000000 0.3750000000000001 0.6250000000000000
0.7768999999999999 0.3750000000000001 0.6250000000000000
0.7634500000000000 0.3585500000000000 0.6414500000000001
0.6943500000000000 0.1250000000000000 0.6250000000000000
0.7231000000000000 0.1250000000000000 0.6250000000000000
0.7365500000000000 0.1414500000000000 0.6414500000000001
0.8056500000000000 0.1250000000000000 0.6250000000000000
0.7768999999999999 0.1250000000000000 0.6250000000000000
0.7634500000000000 0.1085500000000000 0.6085500000000000
0.6943500000000000 0.3750000000000001 0.6250000000000000
0.7231000000000000 0.3750000000000001 0.6250000000000000
0.7365500000000000 0.3914500000000000 0.6085500000000000
0.8056500000000000 0.3750000000000001 0.8750000000000000
0.7768999999999999 0.3750000000000001 0.8750000000000000
0.7634500000000000 0.3914500000000000 0.8914499999999999
0.6943500000000000 0.1250000000000000 0.8750000000000000
0.7231000000000000 0.1250000000000000 0.8750000000000000
0.7365500000000000 0.1085500000000000 0.8914499999999999
0.7365500000000000 0.3585500000000000 0.6414500000000001
0.7634500000000000 0.1414500000000000 0.6414500000000001
0.7365500000000000 0.1414500000000000 0.8585499999999999
0.7634500000000000 0.3585500000000000 0.8585499999999999
0.7365500000000000 0.3914500000000000 0.8914499999999999
0.7634500000000000 0.1085500000000000 0.8914499999999999
0.7365500000000000 0.1085500000000000 0.6085500000000000
0.7634500000000000 0.3914500000000000 0.6085500000000000
0.6250000000000000 0.6250000000000000 0.0556500000000000
0.6250000000000000 0.6250000000000000 0.0269000000000000
0.6414500000000000 0.6085500000000000 0.0134500000000000
0.8750000000000000 0.6250000000000000 0.0556500000000000
0.8750000000000000 0.6250000000000000 0.0269000000000000
0.8914500000000000 0.6414500000000000 0.0134500000000000
0.8750000000000000 0.8750000000000000 0.0556500000000000
0.8750000000000000 0.8750000000000000 0.0269000000000000
0.8585500000000000 0.8914500000000000 0.0134500000000000
0.6250000000000000 0.8750000000000000 0.0556500000000000
0.6250000000000000 0.8750000000000000 0.0269000000000000
0.6085500000000001 0.8585500000000000 0.0134500000000000
0.6250000000000000 0.8750000000000000 0.4443500000000000
0.6250000000000000 0.8750000000000000 0.4731000000000000
0.6414500000000000 0.8914500000000000 0.4865500000000000
0.6250000000000000 0.6250000000000000 0.4443500000000000
0.6250000000000000 0.6250000000000000 0.4731000000000000
0.6085500000000001 0.6414500000000000 0.4865500000000000
0.8750000000000000 0.6250000000000000 0.4443500000000000
0.8750000000000000 0.6250000000000000 0.4731000000000000
0.8585500000000000 0.6085500000000000 0.4865500000000000
0.8750000000000000 0.8750000000000000 0.4443500000000000
0.8750000000000000 0.8750000000000000 0.4731000000000000
0.8914500000000000 0.8585500000000000 0.4865500000000000
0.5556500000000000 0.6250000000000000 0.1250000000000000
0.5269000000000001 0.6250000000000000 0.1250000000000000
0.5134500000000000 0.6414500000000000 0.1085500000000000
0.8750000000000000 0.5556500000000000 0.1250000000000000
0.8750000000000000 0.5269000000000000 0.1250000000000000
0.8585500000000000 0.5134500000000000 0.1085500000000000
0.9443500000000000 0.8750000000000000 0.1250000000000000
0.9731000000000001 0.8750000000000000 0.1250000000000000
0.9865499999999999 0.8585500000000000 0.1085500000000000
0.6249999999999999 0.9443500000000000 0.1250000000000000
0.6249999999999999 0.9731000000000001 0.1250000000000000
0.6414499999999999 0.9865499999999999 0.1085500000000000
0.5556500000000000 0.8750000000000000 0.3750000000000000
0.5269000000000001 0.8750000000000000 0.3750000000000000
0.5134500000000000 0.8585500000000000 0.3914500000000000
0.6250000000000000 0.5556500000000000 0.3750000000000000
0.6250000000000000 0.5269000000000000 0.3750000000000000
0.6414500000000000 0.5134500000000000 0.3914500000000000
0.9443500000000000 0.6250000000000000 0.3750000000000000
0.9731000000000001 0.6250000000000000 0.3750000000000000
0.9865499999999999 0.6414500000000000 0.3914500000000000
0.8749999999999999 0.9443500000000000 0.3750000000000000
0.8749999999999999 0.9731000000000001 0.3750000000000000
0.8585499999999999 0.9865499999999999 0.3914500000000000
0.6250000000000000 0.5556500000000000 0.1250000000000000
0.6250000000000000 0.5269000000000000 0.1250000000000000
0.6085500000000000 0.5134500000000000 0.1414500000000000
0.6249999999999999 0.9443500000000000 0.3750000000000000
0.6249999999999999 0.9731000000000001 0.3750000000000000
0.6085500000000000 0.9865499999999999 0.3585500000000000
0.5556500000000000 0.6250000000000000 0.3750000000000000
0.5269000000000001 0.6250000000000000 0.3750000000000000
0.5134500000000000 0.6085500000000000 0.3585500000000000
0.8750000000000000 0.5556500000000000 0.3750000000000000
0.8750000000000000 0.5269000000000000 0.3750000000000000
0.8914500000000000 0.5134500000000000 0.3585500000000000
0.9443500000000000 0.8750000000000000 0.3750000000000000
0.9731000000000001 0.8750000000000000 0.3750000000000000
0.9865499999999999 0.8914500000000000 0.3585500000000000
0.8749999999999999 0.9443500000000000 0.1250000000000000
0.8749999999999999 0.9731000000000001 0.1250000000000000
0.8914499999999999 0.9865499999999999 0.1414500000000000
0.5556500000000000 0.8750000000000000 0.1250000000000000
0.5269000000000001 0.8750000000000000 0.1250000000000000
0.5134500000000000 0.8914500000000000 0.1414500000000000
0.9443500000000000 0.6250000000000000 0.1250000000000000
0.9731000000000001 0.6250000000000000 0.1250000000000000
0.9865499999999999 0.6085500000000000 0.1414500000000000
0.8585500000000000 0.8914500000000000 0.4865500000000000
0.6085500000000001 0.8585500000000000 0.4865500000000000
0.6414500000000000 0.6085500000000000 0.4865500000000000
0.8914500000000000 0.6414500000000000 0.4865500000000000
0.8585500000000000 0.6085500000000000 0.0134500000000000
0.8914500000000000 0.8585500000000000 0.0134500000000000
0.6414500000000000 0.8914500000000000 0.0134500000000000
0.6085500000000001 0.6414500000000000 0.0134500000000000
0.9865499999999999 0.8585500000000000 0.3914500000000000
0.6414499999999999 0.9865499999999999 0.3914500000000000
0.5134500000000000 0.6414500000000000 0.3914500000000000
0.8585500000000000 0.5134500000000000 0.3914500000000000
0.9865499999999999 0.6414500000000000 0.1085500000000000
0.8585499999999999 0.9865499999999999 0.1085500000000000
0.5134500000000000 0.8585500000000000 0.1085500000000000
0.6414500000000000 0.5134500000000000 0.1085500000000000
0.8914499999999999 0.9865499999999999 0.3585500000000000
0.8914500000000000 0.5134500000000000 0.1414500000000000
0.9865499999999999 0.8914500000000000 0.1414500000000000
0.6085500000000000 0.9865499999999999 0.1414500000000000
0.5134500000000000 0.6085500000000000 0.1414500000000000
0.6085500000000000 0.5134500000000000 0.3585500000000000
0.9865499999999999 0.6085500000000000 0.3585500000000000
0.5134500000000000 0.8914500000000000 0.3585500000000000
0.6250000000000000 0.8750000000000000 0.3056500000000000
0.6250000000000000 0.8750000000000000 0.2769000000000000
0.6414500000000000 0.8585499999999999 0.2634500000000000
0.8750000000000000 0.8750000000000000 0.3056500000000000
0.8750000000000000 0.8750000000000000 0.2769000000000000
0.8914500000000000 0.8914499999999999 0.2634500000000000
0.8750000000000000 0.6250000000000000 0.3056500000000000
0.8750000000000000 0.6250000000000000 0.2769000000000000
0.8585500000000000 0.6414500000000001 0.2634500000000000
0.6250000000000000 0.6250000000000000 0.3056500000000000
0.6250000000000000 0.6250000000000000 0.2769000000000000
0.6085500000000001 0.6085500000000000 0.2634500000000000
0.6250000000000000 0.6250000000000000 0.1943500000000000
0.6250000000000000 0.6250000000000000 0.2231000000000000
0.6414500000000000 0.6414500000000001 0.2365500000000000
0.6250000000000000 0.8750000000000000 0.1943500000000000
0.6250000000000000 0.8750000000000000 0.2231000000000000
0.6085500000000001 0.8914499999999999 0.2365500000000000
0.8750000000000000 0.8750000000000000 0.1943500000000000
0.8750000000000000 0.8750000000000000 0.2231000000000000
0.8585500000000000 0.8585499999999999 0.2365500000000000
0.8750000000000000 0.6250000000000000 0.1943500000000000
0.8750000000000000 0.6250000000000000 0.2231000000000000
0.8914500000000000 0.6085500000000000 0.2365500000000000
0.8750000000000000 0.8056500000000000 0.3750000000000000
0.8750000000000000 0.7768999999999999 0.3750000000000000
0.8585500000000000 0.7634500000000000 0.3585500000000000
0.6250000000000000 0.6943500000000000 0.3750000000000000
0.6250000000000000 0.7231000000000000 0.3750000000000000
0.6414500000000000 0.7365500000000000 0.3585500000000000
0.6250000000000000 0.8056500000000000 0.1250000000000000
0.6250000000000000 0.7768999999999999 0.1250000000000000
0.6414500000000000 0.7634500000000000 0.1414500000000000
0.8750000000000000 0.6943500000000000 0.1250000000000000
0.8750000000000000 0.7231000000000000 0.1250000000000000
0.8585500000000000 0.7365500000000000 0.1414500000000000
0.6250000000000000 0.8056500000000000 0.3750000000000000
0.6250000000000000 0.7768999999999999 0.3750000000000000
0.6085500000000001 0.7634500000000000 0.3914500000000000
0.6250000000000000 0.6943500000000000 0.1250000000000000
0.6250000000000000 0.7231000000000000 0.1250000000000000
0.6085500000000001 0.7365500000000000 0.1085500000000000
0.8750000000000000 0.8056500000000000 0.1250000000000000
0.8750000000000000 0.7768999999999999 0.1250000000000000
0.8914500000000000 0.7634500000000000 0.1085500000000000
0.8750000000000000 0.6943500000000000 0.3750000000000000
0.8750000000000000 0.7231000000000000 0.3750000000000000
0.8914500000000000 0.7365500000000000 0.3914500000000000
0.8585500000000000 0.6414500000000001 0.2365500000000000
0.6085500000000001 0.6085500000000000 0.2365500000000000
0.6414500000000000 0.8585499999999999 0.2365500000000000
0.8914500000000000 0.8914499999999999 0.2365500000000000
0.8585500000000000 0.8585499999999999 0.2634500000000000
0.8914500000000000 0.6085500000000000 0.2634500000000000
0.6414500000000000 0.6414500000000001 0.2634500000000000
0.6085500000000001 0.8914499999999999 0.2634500000000000
0.6414500000000000 0.7365500000000000 0.1414500000000000
0.8585500000000000 0.7634500000000000 0.1414500000000000
0.8585500000000000 0.7365500000000000 0.3585500000000000
0.6414500000000000 0.7634500000000000 0.3585500000000000
0.8914500000000000 0.7365500000000000 0.1085500000000000
0.8914500000000000 0.7634500000000000 0.3914500000000000
0.6085500000000001 0.7365500000000000 0.3914500000000000
0.6085500000000001 0.7634500000000000 0.1085500000000000
0.8056500000000000 0.6250000000000000 0.3750000000000000
0.7768999999999999 0.6250000000000000 0.3750000000000000
0.7634500000000000 0.6414500000000000 0.3585500000000000
0.6943500000000000 0.8750000000000000 0.3750000000000000
0.7231000000000000 0.8750000000000000 0.3750000000000000
0.7365500000000000 0.8585500000000000 0.3585500000000000
0.8056500000000000 0.8750000000000000 0.1250000000000000
0.7768999999999999 0.8750000000000000 0.1250000000000000
0.7634500000000000 0.8585500000000000 0.1414500000000000
0.6943500000000000 0.6250000000000000 0.1250000000000000
0.7231000000000000 0.6250000000000000 0.1250000000000000
0.7365500000000000 0.6414500000000000 0.1414500000000000
0.8056500000000000 0.6250000000000000 0.1250000000000000
0.7768999999999999 0.6250000000000000 0.1250000000000000
0.7634500000000000 0.6085500000000000 0.1085500000000000
0.6943500000000000 0.8750000000000000 0.1250000000000000
0.7231000000000000 0.8750000000000000 0.1250000000000000
0.7365500000000000 0.8914500000000000 0.1085500000000000
0.8056500000000000 0.8750000000000000 0.3750000000000000
0.7768999999999999 0.8750000000000000 0.3750000000000000
0.7634500000000000 0.8914500000000000 0.3914500000000000
0.6943500000000000 0.6250000000000000 0.3750000000000000
0.7231000000000000 0.6250000000000000 0.3750000000000000
0.7365500000000000 0.6085500000000000 0.3914500000000000
0.7365500000000000 0.8585500000000000 0.1414500000000000
0.7634500000000000 0.6414500000000000 0.1414500000000000
0.7365500000000000 0.6414500000000000 0.3585500000000000
0.7634500000000000 0.8585500000000000 0.3585500000000000
0.7365500000000000 0.8914500000000000 0.3914500000000000
0.7634500000000000 0.6085500000000000 0.3914500000000000
0.7365500000000000 0.6085500000000000 0.1085500000000000
0.7634500000000000 0.8914500000000000 0.1085500000000000
0.6250000000000000 0.6250000000000000 0.5556500000000000
0.6250000000000000 0.6250000000000000 0.5269000000000000
0.6414500000000000 0.6085500000000000 0.5134500000000000
0.8750000000000000 0.6250000000000000 0.5556500000000000
0.8750000000000000 0.6250000000000000 0.5269000000000000
0.8914500000000000 0.6414500000000000 0.5134500000000000
0.8750000000000000 0.8750000000000000 0.5556500000000000
0.8750000000000000 0.8750000000000000 0.5269000000000000
0.8585500000000000 0.8914500000000000 0.5134500000000000
0.6250000000000000 0.8750000000000000 0.5556500000000000
0.6250000000000000 0.8750000000000000 0.5269000000000000
0.6085500000000001 0.8585500000000000 0.5134500000000000
0.6249999999999999 0.8749999999999999 0.9443500000000000
0.6249999999999999 0.8749999999999999 0.9731000000000001
0.6414499999999999 0.8914499999999999 0.9865499999999999
0.6249999999999999 0.6249999999999999 0.9443500000000000
0.6249999999999999 0.6249999999999999 0.9731000000000001
0.6085500000000000 0.6414499999999999 0.9865499999999999
0.8749999999999999 0.6249999999999999 0.9443500000000000
0.8749999999999999 0.6249999999999999 0.9731000000000001
0.8585499999999999 0.6085500000000000 0.9865499999999999
0.8749999999999999 0.8749999999999999 0.9443500000000000
0.8749999999999999 0.8749999999999999 0.9731000000000001
0.8914499999999999 0.8585499999999999 0.9865499999999999
0.5556500000000001 0.6250000000000000 0.6250000000000000
0.5269000000000001 0.6250000000000000 0.6250000000000000
0.5134500000000001 0.6414500000000000 0.6085500000000000
0.8750000000000000 0.5556500000000000 0.6250000000000000
0.8750000000000000 0.5269000000000001 0.6250000000000000
0.8585500000000000 0.5134500000000000 0.6085500000000000
0.9443500000000000 0.8750000000000000 0.6250000000000000
0.9731000000000001 0.8750000000000000 0.6250000000000000
0.9865499999999999 0.8585500000000000 0.6085500000000000
0.6249999999999999 0.9443500000000000 0.6250000000000000
0.6249999999999999 0.9731000000000001 0.6250000000000000
0.6414499999999999 0.9865499999999999 0.6085500000000000
0.5556500000000001 0.8750000000000000 0.8750000000000000
0.5269000000000001 0.8750000000000000 0.8750000000000000
0.5134500000000001 0.8585500000000000 0.8914500000000000
0.6250000000000000 0.5556500000000000 0.8750000000000000
0.6250000000000000 0.5269000000000001 0.8750000000000000
0.6414500000000000 0.5134500000000000 0.8914500000000000
0.9443500000000000 0.6250000000000000 0.8750000000000000
0.9731000000000001 0.6250000000000000 0.8750000000000000
0.9865499999999999 0.6414500000000000 0.8914500000000000
0.8749999999999999 0.9443500000000000 0.8750000000000000
0.8749999999999999 0.9731000000000001 0.8750000000000000
0.8585499999999999 0.9865499999999999 0.8914500000000000
0.6250000000000000 0.5556500000000000 0.6250000000000000
0.6250000000000000 0.5269000000000001 0.6250000000000000
0.6085500000000001 0.5134500000000000 0.6414500000000000
0.6249999999999999 0.9443500000000000 0.8750000000000000
0.6249999999999999 0.9731000000000001 0.8750000000000000
0.6085500000000000 0.9865499999999999 0.8585500000000000
0.5556500000000001 0.6250000000000000 0.8750000000000000
0.5269000000000001 0.6250000000000000 0.8750000000000000
0.5134500000000001 0.6085500000000001 0.8585500000000000
0.8750000000000000 0.5556500000000000 0.8750000000000000
0.8750000000000000 0.5269000000000001 0.8750000000000000
0.8914500000000000 0.5134500000000000 0.8585500000000000
0.9443500000000000 0.8750000000000000 0.8750000000000000
0.9731000000000001 0.8750000000000000 0.8750000000000000
0.9865499999999999 0.8914500000000000 0.8585500000000000
0.8749999999999999 0.9443500000000000 0.6250000000000000
0.8749999999999999 0.9731000000000001 0.6250000000000000
0.8914499999999999 0.9865499999999999 0.6414500000000000
0.5556500000000001 0.8750000000000000 0.6250000000000000
0.5269000000000001 0.8750000000000000 0.6250000000000000
0.5134500000000001 0.8914500000000000 0.6414500000000000
0.9443500000000000 0.6250000000000000 0.6250000000000000
0.9731000000000001 0.6250000000000000 0.6250000000000000
0.9865499999999999 0.6085500000000001 0.6414500000000000
0.8585499999999999 0.8914499999999999 0.9865499999999999
0.6085500000000000 0.8585499999999999 0.9865499999999999
0.6414499999999999 0.6085500000000000 0.9865499999999999
0.8914499999999999 0.6414499999999999 0.9865499999999999
0.8585500000000000 0.6085500000000000 0.5134500000000000
0.8914500000000000 0.8585500000000000 0.5134500000000000
0.6414500000000000 0.8914500000000000 0.5134500000000000
0.6085500000000001 0.6414500000000000 0.5134500000000000
0.9865499999999999 0.8585500000000000 0.8914500000000000
0.6414499999999999 0.9865499999999999 0.8914500000000000
0.5134500000000001 0.6414500000000000 0.8914500000000000
0.8585500000000000 0.5134500000000000 0.8914500000000000
0.9865499999999999 0.6414500000000000 0.6085500000000000
0.8585499999999999 0.9865499999999999 0.6085500000000000
0.5134500000000001 0.8585500000000000 0.6085500000000000
0.6414500000000000 0.5134500000000000 0.6085500000000000
0.8914499999999999 0.9865499999999999 0.8585500000000000
0.8914500000000000 0.5134500000000000 0.6414500000000000
0.9865499999999999 0.8914500000000000 0.6414500000000000
0.6085500000000000 0.9865499999999999 0.6414500000000000
0.5134500000000001 0.6085500000000001 0.6414500000000000
0.6085500000000001 0.5134500000000000 0.8585500000000000
0.9865499999999999 0.6085500000000001 0.8585500000000000
0.5134500000000001 0.8914500000000000 0.8585500000000000
0.6250000000000000 0.8750000000000000 0.8056500000000000
0.6250000000000000 0.8750000000000000 0.7768999999999999
0.6414500000000000 0.8585499999999999 0.7634500000000000
0.8750000000000000 0.8750000000000000 0.8056500000000000
0.8750000000000000 0.8750000000000000 0.7768999999999999
0.8914500000000000 0.8914499999999999 0.7634500000000000
0.8750000000000000 0.6250000000000000 0.8056500000000000
0.8750000000000000 0.6250000000000000 0.7768999999999999
0.8585500000000000 0.6414500000000001 0.7634500000000000
0.6250000000000000 0.6250000000000000 0.8056500000000000
0.6250000000000000 0.6250000000000000 0.7768999999999999
0.6085500000000001 0.6085500000000001 0.7634500000000000
0.6250000000000000 0.6250000000000000 0.6943500000000000
0.6250000000000000 0.6250000000000000 0.7231000000000000
0.6414500000000000 0.6414500000000001 0.7365500000000000
0.6250000000000000 0.8750000000000000 0.6943500000000000
0.6250000000000000 0.8750000000000000 0.7231000000000000
0.6085500000000001 0.8914499999999999 0.7365500000000000
0.8750000000000000 0.8750000000000000 0.6943500000000000
0.8750000000000000 0.8750000000000000 0.7231000000000000
0.8585500000000000 0.8585499999999999 0.7365500000000000
0.8750000000000000 0.6250000000000000 0.6943500000000000
0.8750000000000000 0.6250000000000000 0.7231000000000000
0.8914500000000000 0.6085500000000001 0.7365500000000000
0.8750000000000000 0.8056500000000000 0.8750000000000000
0.8750000000000000 0.7768999999999999 0.8750000000000000
0.8585500000000000 0.7634500000000000 0.8585499999999999
0.6250000000000000 0.6943500000000000 0.8750000000000000
0.6250000000000000 0.7231000000000000 0.8750000000000000
0.6414500000000000 0.7365500000000000 0.8585499999999999
0.6250000000000000 0.8056500000000000 0.6250000000000000
0.6250000000000000 0.7768999999999999 0.6250000000000000
0.6414500000000000 0.7634500000000000 0.6414500000000001
0.8750000000000000 0.6943500000000000 0.6250000000000000
0.8750000000000000 0.7231000000000000 0.6250000000000000
0.8585500000000000 0.7365500000000000 0.6414500000000001
0.6250000000000000 0.8056500000000000 0.8750000000000000
0.6250000000000000 0.7768999999999999 0.8750000000000000
0.6085500000000001 0.7634500000000000 0.8914499999999999
0.6250000000000000 0.6943500000000000 0.6250000000000000
0.6250000000000000 0.7231000000000000 0.6250000000000000
0.6085500000000001 0.7365500000000000 0.6085500000000000
0.8750000000000000 0.8056500000000000 0.6250000000000000
0.8750000000000000 0.7768999999999999 0.6250000000000000
0.8914500000000000 0.7634500000000000 0.6085500000000000
0.8750000000000000 0.6943500000000000 0.8750000000000000
0.8750000000000000 0.7231000000000000 0.8750000000000000
0.8914500000000000 0.7365500000000000 0.8914499999999999
0.8585500000000000 0.6414500000000001 0.7365500000000000
0.6085500000000001 0.6085500000000001 0.7365500000000000
0.6414500000000000 0.8585499999999999 0.7365500000000000
0.8914500000000000 0.8914499999999999 0.7365500000000000
0.8585500000000000 0.8585499999999999 0.7634500000000000
0.8914500000000000 0.6085500000000001 0.7634500000000000
0.6414500000000000 0.6414500000000001 0.7634500000000000
0.6085500000000001 0.8914499999999999 0.7634500000000000
0.6414500000000000 0.7365500000000000 0.6414500000000001
0.8585500000000000 0.7634500000000000 0.6414500000000001
0.8585500000000000 0.7365500000000000 0.8585499999999999
0.6414500000000000 0.7634500000000000 0.8585499999999999
0.8914500000000000 0.7365500000000000 0.6085500000000000
0.8914500000000000 0.7634500000000000 0.8914499999999999
0.6085500000000001 0.7365500000000000 0.8914499999999999
0.6085500000000001 0.7634500000000000 0.6085500000000000
0.8056500000000000 0.6250000000000000 0.8750000000000000
0.7768999999999999 0.6250000000000000 0.8750000000000000
0.7634500000000000 0.6414500000000000 0.8585499999999999
0.6943500000000000 0.8750000000000000 0.8750000000000000
0.7231000000000000 0.8750000000000000 0.8750000000000000
0.7365500000000000 0.8585500000000000 0.8585499999999999
0.8056500000000000 0.8750000000000000 0.6250000000000000
0.7768999999999999 0.8750000000000000 0.6250000000000000
0.7634500000000000 0.8585500000000000 0.6414500000000001
0.6943500000000000 0.6250000000000000 0.6250000000000000
0.7231000000000000 0.6250000000000000 0.6250000000000000
0.7365500000000000 0.6414500000000000 0.6414500000000001
0.8056500000000000 0.6250000000000000 0.6250000000000000
0.7768999999999999 0.6250000000000000 0.6250000000000000
0.7634500000000000 0.6085500000000001 0.6085500000000000
0.6943500000000000 0.8750000000000000 0.6250000000000000
0.7231000000000000 0.8750000000000000 0.6250000000000000
0.7365500000000000 0.8914500000000000 0.6085500000000000
0.8056500000000000 0.8750000000000000 0.8750000000000000
0.7768999999999999 0.8750000000000000 0.8750000000000000
0.7634500000000000 0.8914500000000000 0.8914499999999999
0.6943500000000000 0.6250000000000000 0.8750000000000000
0.7231000000000000 0.6250000000000000 0.8750000000000000
0.7365500000000000 0.6085500000000001 0.8914499999999999
0.7365500000000000 0.8585500000000000 0.6414500000000001
0.7634500000000000 0.6414500000000000 0.6414500000000001
0.7365500000000000 0.6414500000000000 0.8585499999999999
0.7634500000000000 0.8585500000000000 0.8585499999999999
0.7365500000000000 0.8914500000000000 0.8914499999999999
0.7634500000000000 0.6085500000000001 0.8914499999999999
0.7365500000000000 0.6085500000000001 0.6085500000000000
0.7634500000000000 0.8914500000000000 0.6085500000000000
0.1524500000000000 0.0975500000000000 0.0224000000000000
0.4024500000000000 0.1524500000000000 0.0224000000000000
0.3475500000000000 0.4024500000000000 0.0224000000000000
0.0975500000000000 0.3475500000000000 0.0224000000000000
0.1524500000000000 0.4024499999999999 0.4776000000000000
0.0975500000000000 0.1524500000000000 0.4776000000000000
0.3475500000000000 0.0975500000000000 0.4776000000000000
0.4024499999999999 0.3475500000000000 0.4776000000000000
0.0224000000000000 0.1524500000000000 0.0975500000000000
0.3475500000000000 0.0224000000000000 0.0975500000000000
0.4776000000000000 0.3475500000000000 0.0975500000000000
0.1524500000000000 0.4776000000000000 0.0975500000000000
0.0224000000000000 0.3475500000000000 0.4024500000000000
0.1524500000000000 0.0224000000000000 0.4024500000000000
0.4776000000000000 0.1524500000000000 0.4024500000000000
0.3475500000000000 0.4776000000000000 0.4024500000000000
0.0975500000000000 0.0224000000000000 0.1524500000000000
0.0975500000000000 0.4776000000000000 0.3475500000000000
0.0224000000000000 0.0975500000000000 0.3475500000000000
0.4024500000000000 0.0224000000000000 0.3475500000000000
0.4776000000000000 0.4024500000000000 0.3475500000000000
0.4024499999999999 0.4776000000000000 0.1524500000000000
0.0224000000000000 0.4024500000000000 0.1524500000000000
0.4776000000000000 0.0975500000000000 0.1524500000000000
0.3475500000000000 0.4024499999999999 0.4776000000000000
0.0975500000000000 0.3475500000000000 0.4776000000000000
0.1524500000000000 0.0975500000000000 0.4776000000000000
0.4024499999999999 0.1524500000000000 0.4776000000000000
0.3475500000000000 0.0975500000000000 0.0224000000000000
0.4024500000000000 0.3475500000000000 0.0224000000000000
0.1524500000000000 0.4024500000000000 0.0224000000000000
0.0975500000000000 0.1524500000000000 0.0224000000000000
0.4776000000000000 0.3475500000000000 0.4024500000000000
0.1524500000000000 0.4776000000000000 0.4024500000000000
0.0224000000000000 0.1524500000000000 0.4024500000000000
0.3475500000000000 0.0224000000000000 0.4024500000000000
0.4776000000000000 0.1524500000000000 0.0975500000000000
0.3475500000000000 0.4776000000000000 0.0975500000000000
0.0224000000000000 0.3475500000000000 0.0975500000000000
0.1524500000000000 0.0224000000000000 0.0975500000000000
0.4024499999999999 0.4776000000000000 0.3475500000000000
0.4024500000000000 0.0224000000000000 0.1524500000000000
0.4776000000000000 0.4024500000000000 0.1524500000000000
0.0975500000000000 0.4776000000000000 0.1524500000000000
0.0224000000000000 0.0975500000000000 0.1524500000000000
0.0975500000000000 0.0224000000000000 0.3475500000000000
0.4776000000000000 0.0975500000000000 0.3475500000000000
0.0224000000000000 0.4024500000000000 0.3475500000000000
0.1524500000000000 0.3475500000000000 0.2724000000000000
0.4024500000000000 0.4024500000000000 0.2724000000000000
0.3475500000000000 0.1524500000000000 0.2724000000000000
0.0975500000000000 0.0975500000000000 0.2724000000000000
0.1524500000000000 0.1524500000000000 0.2276000000000000
0.0975500000000000 0.4024500000000000 0.2276000000000000
0.3475500000000000 0.3475500000000000 0.2276000000000000
0.4024500000000000 0.0975500000000000 0.2276000000000000
0.3475500000000000 0.2724000000000000 0.3475500000000000
0.1524500000000000 0.2276000000000000 0.3475500000000000
0.1524500000000000 0.2724000000000000 0.1524500000000000
0.3475500000000000 0.2276000000000000 0.1524500000000000
0.0975500000000000 0.2724000000000000 0.4024500000000000
0.0975500000000000 0.2276000000000000 0.0975500000000000
0.4024500000000000 0.2724000000000000 0.0975500000000000
0.4024500000000000 0.2276000000000000 0.4024500000000000
0.3475500000000000 0.1524500000000000 0.2276000000000000
0.0975500000000000 0.0975500000000000 0.2276000000000000
0.1524500000000000 0.3475500000000000 0.2276000000000000
0.4024500000000000 0.4024500000000000 0.2276000000000000
0.3475500000000000 0.3475500000000000 0.2724000000000000
0.4024500000000000 0.0975500000000000 0.2724000000000000
0.1524500000000000 0.1524500000000000 0.2724000000000000
0.0975500000000000 0.4024500000000000 0.2724000000000000
0.1524500000000000 0.2276000000000000 0.1524500000000000
0.3475500000000000 0.2724000000000000 0.1524500000000000
0.3475500000000000 0.2276000000000000 0.3475500000000000
0.1524500000000000 0.2724000000000000 0.3475500000000000
0.4024500000000000 0.2276000000000000 0.0975500000000000
0.4024500000000000 0.2724000000000000 0.4024500000000000
0.0975500000000000 0.2276000000000000 0.4024500000000000
0.0975500000000000 0.2724000000000000 0.0975500000000000
0.2724000000000000 0.1524500000000000 0.3475500000000000
0.2276000000000000 0.3475500000000000 0.3475500000000000
0.2724000000000000 0.3475500000000000 0.1524500000000000
0.2276000000000000 0.1524500000000000 0.1524500000000000
0.2724000000000000 0.0975500000000000 0.0975500000000000
0.2276000000000000 0.4024500000000000 0.0975500000000000
0.2724000000000000 0.4024500000000000 0.4024500000000000
0.2276000000000000 0.0975500000000000 0.4024500000000000
0.2276000000000000 0.3475500000000000 0.1524500000000000
0.2724000000000000 0.1524500000000000 0.1524500000000000
0.2276000000000000 0.1524500000000000 0.3475500000000000
0.2724000000000000 0.3475500000000000 0.3475500000000000
0.2276000000000000 0.4024500000000000 0.4024500000000000
0.2724000000000000 0.0975500000000000 0.4024500000000000
0.2276000000000000 0.0975500000000000 0.0975500000000000
0.2724000000000000 0.4024500000000000 0.0975500000000000
0.1524500000000000 0.0975500000000000 0.5224000000000000
0.4024499999999999 0.1524500000000000 0.5224000000000000
0.3475500000000000 0.4024499999999999 0.5224000000000000
0.0975500000000000 0.3475500000000000 0.5224000000000000
0.1524500000000000 0.4024500000000000 0.9776000000000000
0.0975500000000000 0.1524500000000000 0.9776000000000000
0.3475500000000000 0.0975500000000000 0.9776000000000000
0.4024500000000000 0.3475500000000000 0.9776000000000000
0.0224000000000000 0.1524500000000000 0.5975500000000000
0.3475500000000000 0.0224000000000000 0.5975500000000000
0.4776000000000000 0.3475500000000000 0.5975500000000000
0.1524500000000000 0.4776000000000000 0.5975500000000000
0.0224000000000000 0.3475500000000000 0.9024500000000000
0.1524500000000000 0.0224000000000000 0.9024500000000000
0.4776000000000000 0.1524500000000000 0.9024500000000000
0.3475500000000000 0.4776000000000000 0.9024500000000000
0.0975500000000000 0.0224000000000000 0.6524499999999999
0.0975500000000000 0.4776000000000000 0.8475500000000000
0.0224000000000000 0.0975500000000000 0.8475500000000000
0.4024500000000000 0.0224000000000000 0.8475500000000000
0.4776000000000000 0.4024500000000000 0.8475500000000000
0.4024499999999999 0.4776000000000000 0.6524499999999999
0.0224000000000000 0.4024500000000000 0.6524499999999999
0.4776000000000000 0.0975500000000000 0.6524499999999999
0.3475500000000000 0.4024500000000000 0.9776000000000000
0.0975500000000000 0.3475500000000000 0.9776000000000000
0.1524500000000000 0.0975500000000000 0.9776000000000000
0.4024500000000000 0.1524500000000000 0.9776000000000000
0.3475500000000000 0.0975500000000000 0.5224000000000000
0.4024499999999999 0.3475500000000000 0.5224000000000000
0.1524500000000000 0.4024499999999999 0.5224000000000000
0.0975500000000000 0.1524500000000000 0.5224000000000000
0.4776000000000000 0.3475500000000000 0.9024500000000000
0.1524500000000000 0.4776000000000000 0.9024500000000000
0.0224000000000000 0.1524500000000000 0.9024500000000000
0.3475500000000000 0.0224000000000000 0.9024500000000000
0.4776000000000000 0.1524500000000000 0.5975500000000000
0.3475500000000000 0.4776000000000000 0.5975500000000000
0.0224000000000000 0.3475500000000000 0.5975500000000000
0.1524500000000000 0.0224000000000000 0.5975500000000000
0.4024499999999999 0.4776000000000000 0.8475500000000000
0.4024500000000000 0.0224000000000000 0.6524499999999999
0.4776000000000000 0.4024500000000000 0.6524499999999999
0.0975500000000000 0.4776000000000000 0.6524499999999999
0.0224000000000000 0.0975500000000000 0.6524499999999999
0.0975500000000000 0.0224000000000000 0.8475500000000000
0.4776000000000000 0.0975500000000000 0.8475500000000000
0.0224000000000000 0.4024500000000000 0.8475500000000000
0.1524500000000000 0.3475500000000000 0.7724000000000000
0.4024500000000000 0.4024500000000000 0.7724000000000000
0.3475500000000000 0.1524500000000000 0.7724000000000000
0.0975500000000000 0.0975500000000000 0.7724000000000000
0.1524500000000000 0.1524500000000000 0.7276000000000000
0.0975500000000000 0.4024500000000000 0.7276000000000000
0.3475500000000000 0.3475500000000000 0.7276000000000000
0.4024500000000000 0.0975500000000000 0.7276000000000000
0.3475500000000000 0.2724000000000000 0.8475500000000000
0.1524500000000000 0.2276000000000000 0.8475500000000000
0.1524500000000000 0.2723999999999999 0.6524499999999999
0.3475500000000000 0.2276000000000000 0.6524499999999999
0.0975500000000000 0.2724000000000000 0.9024500000000000
0.0975500000000000 0.2276000000000000 0.5975500000000000
0.4024500000000000 0.2723999999999999 0.5975500000000000
0.4024500000000000 0.2276000000000000 0.9024500000000000
0.3475500000000000 0.1524500000000000 0.7276000000000000
0.0975500000000000 0.0975500000000000 0.7276000000000000
0.1524500000000000 0.3475500000000000 0.7276000000000000
0.4024500000000000 0.4024500000000000 0.7276000000000000
0.3475500000000000 0.3475500000000000 0.7724000000000000
0.4024500000000000 0.0975500000000000 0.7724000000000000
0.1524500000000000 0.1524500000000000 0.7724000000000000
0.0975500000000000 0.4024500000000000 0.7724000000000000
0.1524500000000000 0.2276000000000000 0.6524499999999999
0.3475500000000000 0.2723999999999999 0.6524499999999999
0.3475500000000000 0.2276000000000000 0.8475500000000000
0.1524500000000000 0.2724000000000000 0.8475500000000000
0.4024500000000000 0.2276000000000000 0.5975500000000000
0.4024500000000000 0.2724000000000000 0.9024500000000000
0.0975500000000000 0.2276000000000000 0.9024500000000000
0.0975500000000000 0.2723999999999999 0.5975500000000000
0.2724000000000000 0.1524500000000000 0.8475500000000000
0.2276000000000000 0.3475500000000000 0.8475500000000000
0.2724000000000000 0.3475500000000000 0.6524499999999999
0.2276000000000000 0.1524500000000000 0.6524499999999999
0.2723999999999999 0.0975500000000000 0.5975500000000000
0.2276000000000000 0.4024500000000000 0.5975500000000000
0.2724000000000000 0.4024500000000000 0.9024500000000000
0.2276000000000000 0.0975500000000000 0.9024500000000000
0.2276000000000000 0.3475500000000000 0.6524499999999999
0.2723999999999999 0.1524500000000000 0.6524499999999999
0.2276000000000000 0.1524500000000000 0.8475500000000000
0.2724000000000000 0.3475500000000000 0.8475500000000000
0.2276000000000000 0.4024500000000000 0.9024500000000000
0.2724000000000000 0.0975500000000000 0.9024500000000000
0.2276000000000000 0.0975500000000000 0.5975500000000000
0.2724000000000000 0.4024500000000000 0.5975500000000000
0.1524500000000000 0.5975500000000000 0.0224000000000000
0.4024500000000000 0.6524499999999999 0.0224000000000000
0.3475500000000000 0.9024500000000000 0.0224000000000000
0.0975500000000000 0.8475500000000000 0.0224000000000000
0.1524500000000000 0.9024500000000000 0.4776000000000000
0.0975500000000000 0.6524499999999999 0.4776000000000000
0.3475500000000000 0.5975500000000000 0.4776000000000000
0.4024499999999999 0.8475500000000000 0.4776000000000000
0.0224000000000000 0.6524499999999999 0.0975500000000000
0.3475500000000000 0.5224000000000000 0.0975500000000000
0.4776000000000000 0.8475500000000000 0.0975500000000000
0.1524500000000000 0.9776000000000000 0.0975500000000000
0.0224000000000000 0.8475500000000000 0.4024500000000000
0.1524500000000000 0.5224000000000000 0.4024500000000000
0.4776000000000000 0.6524499999999999 0.4024500000000000
0.3475500000000000 0.9776000000000000 0.4024500000000000
0.0975500000000000 0.5224000000000000 0.1524500000000000
0.0975500000000000 0.9776000000000000 0.3475500000000000
0.0224000000000000 0.5975500000000000 0.3475500000000000
0.4024499999999999 0.5224000000000000 0.3475500000000000
0.4776000000000000 0.9024500000000000 0.3475500000000000
0.4024500000000000 0.9776000000000000 0.1524500000000000
0.0224000000000000 0.9024500000000000 0.1524500000000000
0.4776000000000000 0.5975500000000000 0.1524500000000000
0.3475500000000000 0.9024500000000000 0.4776000000000000
0.0975500000000000 0.8475500000000000 0.4776000000000000
0.1524500000000000 0.5975500000000000 0.4776000000000000
0.4024499999999999 0.6524499999999999 0.4776000000000000
0.3475500000000000 0.5975500000000000 0.0224000000000000
0.4024500000000000 0.8475500000000000 0.0224000000000000
0.1524500000000000 0.9024500000000000 0.0224000000000000
0.0975500000000000 0.6524499999999999 0.0224000000000000
0.4776000000000000 0.8475500000000000 0.4024500000000000
0.1524500000000000 0.9776000000000000 0.4024500000000000
0.0224000000000000 0.6524499999999999 0.4024500000000000
0.3475500000000000 0.5224000000000000 0.4024500000000000
0.4776000000000000 0.6524499999999999 0.0975500000000000
0.3475500000000000 0.9776000000000000 0.0975500000000000
0.0224000000000000 0.8475500000000000 0.0975500000000000
0.1524500000000000 0.5224000000000000 0.0975500000000000
0.4024500000000000 0.9776000000000000 0.3475500000000000
0.4024499999999999 0.5224000000000000 0.1524500000000000
0.4776000000000000 0.9024500000000000 0.1524500000000000
0.0975500000000000 0.9776000000000000 0.1524500000000000
0.0224000000000000 0.5975500000000000 0.1524500000000000
0.0975500000000000 0.5224000000000000 0.3475500000000000
0.4776000000000000 0.5975500000000000 0.3475500000000000
0.0224000000000000 0.9024500000000000 0.3475500000000000
0.1524500000000000 0.8475500000000000 0.2724000000000000
0.4024500000000000 0.9024500000000000 0.2724000000000000
0.3475500000000000 0.6524499999999999 0.2724000000000000
0.0975500000000000 0.5975500000000000 0.2724000000000000
0.1524500000000000 0.6524499999999999 0.2276000000000000
0.0975500000000000 0.9024500000000000 0.2276000000000000
0.3475500000000000 0.8475500000000000 0.2276000000000000
0.4024500000000000 0.5975500000000000 0.2276000000000000
0.3475500000000000 0.7724000000000000 0.3475500000000000
0.1524500000000000 0.7276000000000000 0.3475500000000000
0.1524500000000000 0.7724000000000000 0.1524500000000000
0.3475500000000000 0.7276000000000000 0.1524500000000000
0.0975500000000000 0.7724000000000000 0.4024500000000000
0.0975500000000000 0.7276000000000000 0.0975500000000000
0.4024500000000000 0.7724000000000000 0.0975500000000000
0.4024500000000000 0.7276000000000000 0.4024500000000000
0.3475500000000000 0.6524499999999999 0.2276000000000000
0.0975500000000000 0.5975500000000000 0.2276000000000000
0.1524500000000000 0.8475500000000000 0.2276000000000000
0.4024500000000000 0.9024500000000000 0.2276000000000000
0.3475500000000000 0.8475500000000000 0.2724000000000000
0.4024500000000000 0.5975500000000000 0.2724000000000000
0.1524500000000000 0.6524499999999999 0.2724000000000000
0.0975500000000000 0.9024500000000000 0.2724000000000000
0.1524500000000000 0.7276000000000000 0.1524500000000000
0.3475500000000000 0.7724000000000000 0.1524500000000000
0.3475500000000000 0.7276000000000000 0.3475500000000000
0.1524500000000000 0.7724000000000000 0.3475500000000000
0.4024500000000000 0.7276000000000000 0.0975500000000000
0.4024500000000000 0.7724000000000000 0.4024500000000000
0.0975500000000000 0.7276000000000000 0.4024500000000000
0.0975500000000000 0.7724000000000000 0.0975500000000000
0.2724000000000000 0.6524499999999999 0.3475500000000000
0.2276000000000000 0.8475500000000000 0.3475500000000000
0.2724000000000000 0.8475500000000000 0.1524500000000000
0.2276000000000000 0.6524499999999999 0.1524500000000000
0.2723999999999999 0.5975500000000000 0.0975500000000000
0.2276000000000000 0.9024500000000000 0.0975500000000000
0.2724000000000000 0.9024500000000000 0.4024500000000000
0.2276000000000000 0.5975500000000000 0.4024500000000000
0.2276000000000000 0.8475500000000000 0.1524500000000000
0.2723999999999999 0.6524499999999999 0.1524500000000000
0.2276000000000000 0.6524499999999999 0.3475500000000000
0.2724000000000000 0.8475500000000000 0.3475500000000000
0.2276000000000000 0.9024500000000000 0.4024500000000000
0.2724000000000000 0.5975500000000000 0.4024500000000000
0.2276000000000000 0.5975500000000000 0.0975500000000000
0.2724000000000000 0.9024500000000000 0.0975500000000000
0.1524500000000000 0.5975500000000000 0.5224000000000000
0.4024499999999999 0.6524499999999999 0.5224000000000000
0.3475500000000000 0.9024500000000000 0.5224000000000000
0.0975500000000000 0.8475500000000000 0.5224000000000000
0.1524500000000000 0.9024499999999999 0.9776000000000000
0.0975500000000000 0.6524499999999998 0.9776000000000000
0.3475500000000000 0.5975499999999999 0.9776000000000000
0.4024500000000000 0.8475499999999999 0.9776000000000000
0.0224000000000000 0.6524499999999999 0.5975500000000000
0.3475500000000000 0.5224000000000001 0.5975500000000000
0.4776000000000000 0.8475500000000000 0.5975500000000000
0.1524500000000000 0.9776000000000000 0.5975500000000000
0.0224000000000000 0.8475500000000000 0.9024500000000000
0.1524500000000000 0.5224000000000001 0.9024500000000000
0.4776000000000000 0.6524499999999999 0.9024500000000000
0.3475500000000000 0.9776000000000000 0.9024500000000000
0.0975500000000000 0.5224000000000001 0.6524499999999999
0.0975500000000000 0.9776000000000000 0.8475500000000000
0.0224000000000000 0.5975500000000000 0.8475500000000000
0.4024499999999999 0.5224000000000001 0.8475500000000000
0.4776000000000000 0.9024500000000000 0.8475500000000000
0.4024500000000000 0.9776000000000000 0.6524499999999999
0.0224000000000000 0.9024500000000000 0.6524499999999999
0.4776000000000000 0.5975500000000000 0.6524499999999999
0.3475500000000000 0.9024499999999999 0.9776000000000000
0.0975500000000000 0.8475499999999999 0.9776000000000000
0.1524500000000000 0.5975499999999999 0.9776000000000000
0.4024500000000000 0.6524499999999998 0.9776000000000000
0.3475500000000000 0.5975500000000000 0.5224000000000000
0.4024499999999999 0.8475500000000000 0.5224000000000000
0.1524500000000000 0.9024500000000000 0.5224000000000000
0.0975500000000000 0.6524499999999999 0.5224000000000000
0.4776000000000000 0.8475500000000000 0.9024500000000000
0.1524500000000000 0.9776000000000000 0.9024500000000000
0.0224000000000000 0.6524499999999999 0.9024500000000000
0.3475500000000000 0.5224000000000001 0.9024500000000000
0.4776000000000000 0.6524499999999999 0.5975500000000000
0.3475500000000000 0.9776000000000000 0.5975500000000000
0.0224000000000000 0.8475500000000000 0.5975500000000000
0.1524500000000000 0.5224000000000001 0.5975500000000000
0.4024500000000000 0.9776000000000000 0.8475500000000000
0.4024499999999999 0.5224000000000001 0.6524499999999999
0.4776000000000000 0.9024500000000000 0.6524499999999999
0.0975500000000000 0.9776000000000000 0.6524499999999999
0.0224000000000000 0.5975500000000000 0.6524499999999999
0.0975500000000000 0.5224000000000001 0.8475500000000000
0.4776000000000000 0.5975500000000000 0.8475500000000000
0.0224000000000000 0.9024500000000000 0.8475500000000000
0.1524500000000000 0.8475500000000000 0.7724000000000000
0.4024500000000000 0.9024500000000000 0.7724000000000000
0.3475500000000000 0.6524499999999999 0.7724000000000000
0.0975500000000000 0.5975500000000000 0.7724000000000000
0.1524500000000000 0.6524499999999999 0.7276000000000000
0.0975500000000000 0.9024500000000000 0.7276000000000000
0.3475500000000000 0.8475500000000000 0.7276000000000000
0.4024500000000000 0.5975500000000000 0.7276000000000000
0.3475500000000000 0.7724000000000000 0.8475500000000000
0.1524500000000000 0.7276000000000000 0.8475500000000000
0.1524500000000000 0.7724000000000000 0.6524499999999999
0.3475500000000000 0.7276000000000000 0.6524499999999999
0.0975500000000000 0.7724000000000000 0.9024500000000000
0.0975500000000000 0.7276000000000000 0.5975500000000000
0.4024500000000000 0.7724000000000000 0.5975500000000000
0.4024500000000000 0.7276000000000000 0.9024500000000000
0.3475500000000000 0.6524499999999999 0.7276000000000000
0.0975500000000000 0.5975500000000000 0.7276000000000000
0.1524500000000000 0.8475500000000000 0.7276000000000000
0.4024500000000000 0.9024500000000000 0.7276000000000000
0.3475500000000000 0.8475500000000000 0.7724000000000000
0.4024500000000000 0.5975500000000000 0.7724000000000000
0.1524500000000000 0.6524499999999999 0.7724000000000000
0.0975500000000000 0.9024500000000000 0.7724000000000000
0.1524500000000000 0.7276000000000000 0.6524499999999999
0.3475500000000000 0.7724000000000000 0.6524499999999999
0.3475500000000000 0.7276000000000000 0.8475500000000000
0.1524500000000000 0.7724000000000000 0.8475500000000000
0.4024500000000000 0.7276000000000000 0.5975500000000000
0.4024500000000000 0.7724000000000000 0.9024500000000000
0.0975500000000000 0.7276000000000000 0.9024500000000000
0.0975500000000000 0.7724000000000000 0.5975500000000000
0.2724000000000000 0.6524499999999999 0.8475500000000000
0.2276000000000000 0.8475500000000000 0.8475500000000000
0.2724000000000000 0.8475500000000000 0.6524499999999999
0.2276000000000000 0.6524499999999999 0.6524499999999999
0.2723999999999999 0.5975500000000000 0.5975500000000000
0.2276000000000000 0.9024500000000000 0.5975500000000000
0.2724000000000000 0.9024500000000000 0.9024500000000000
0.2276000000000000 0.5975500000000000 0.9024500000000000
0.2276000000000000 0.8475500000000000 0.6524499999999999
0.2723999999999999 0.6524499999999999 0.6524499999999999
0.2276000000000000 0.6524499999999999 0.8475500000000000
0.2724000000000000 0.8475500000000000 0.8475500000000000
0.2276000000000000 0.9024500000000000 0.9024500000000000
0.2724000000000000 0.5975500000000000 0.9024500000000000
0.2276000000000000 0.5975500000000000 0.5975500000000000
0.2724000000000000 0.9024500000000000 0.5975500000000000
0.6524499999999999 0.0975500000000000 0.0224000000000000
0.9024500000000000 0.1524500000000000 0.0224000000000000
0.8475500000000000 0.4024500000000000 0.0224000000000000
0.5975500000000000 0.3475500000000000 0.0224000000000000
0.6524499999999999 0.4024499999999999 0.4776000000000000
0.5975500000000000 0.1524500000000000 0.4776000000000000
0.8475500000000000 0.0975500000000000 0.4776000000000000
0.9024500000000000 0.3475500000000000 0.4776000000000000
0.5224000000000000 0.1524500000000000 0.0975500000000000
0.8475500000000000 0.0224000000000000 0.0975500000000000
0.9776000000000000 0.3475500000000000 0.0975500000000000
0.6524499999999999 0.4776000000000000 0.0975500000000000
0.5224000000000000 0.3475500000000000 0.4024500000000000
0.6524499999999999 0.0224000000000000 0.4024500000000000
0.9776000000000000 0.1524500000000000 0.4024500000000000
0.8475500000000000 0.4776000000000000 0.4024500000000000
0.5975500000000000 0.0224000000000000 0.1524500000000000
0.5975500000000000 0.4776000000000000 0.3475500000000000
0.5224000000000000 0.0975500000000000 0.3475500000000000
0.9024500000000000 0.0224000000000000 0.3475500000000000
0.9776000000000000 0.4024500000000000 0.3475500000000000
0.9024500000000000 0.4776000000000000 0.1524500000000000
0.5224000000000000 0.4024500000000000 0.1524500000000000
0.9776000000000000 0.0975500000000000 0.1524500000000000
0.8475500000000000 0.4024499999999999 0.4776000000000000
0.5975500000000000 0.3475500000000000 0.4776000000000000
0.6524499999999999 0.0975500000000000 0.4776000000000000
0.9024500000000000 0.1524500000000000 0.4776000000000000
0.8475500000000000 0.0975500000000000 0.0224000000000000
0.9024500000000000 0.3475500000000000 0.0224000000000000
0.6524499999999999 0.4024500000000000 0.0224000000000000
0.5975500000000000 0.1524500000000000 0.0224000000000000
0.9776000000000000 0.3475500000000000 0.4024500000000000
0.6524499999999999 0.4776000000000000 0.4024500000000000
0.5224000000000000 0.1524500000000000 0.4024500000000000
0.8475500000000000 0.0224000000000000 0.4024500000000000
0.9776000000000000 0.1524500000000000 0.0975500000000000
0.8475500000000000 0.4776000000000000 0.0975500000000000
0.5224000000000000 0.3475500000000000 0.0975500000000000
0.6524499999999999 0.0224000000000000 0.0975500000000000
0.9024500000000000 0.4776000000000000 0.3475500000000000
0.9024500000000000 0.0224000000000000 0.1524500000000000
0.9776000000000000 0.4024500000000000 0.1524500000000000
0.5975500000000000 0.4776000000000000 0.1524500000000000
0.5224000000000000 0.0975500000000000 0.1524500000000000
0.5975500000000000 0.0224000000000000 0.3475500000000000
0.9776000000000000 0.0975500000000000 0.3475500000000000
0.5224000000000000 0.4024500000000000 0.3475500000000000
0.6524499999999999 0.3475500000000000 0.2724000000000000
0.9024500000000000 0.4024500000000000 0.2724000000000000
0.8475500000000000 0.1524500000000000 0.2724000000000000
0.5975500000000000 0.0975500000000000 0.2724000000000000
0.6524499999999999 0.1524500000000000 0.2276000000000000
0.5975500000000000 0.4024500000000000 0.2276000000000000
0.8475500000000000 0.3475500000000000 0.2276000000000000
0.9024500000000000 0.0975500000000000 0.2276000000000000
0.8475500000000000 0.2724000000000000 0.3475500000000000
0.6524499999999999 0.2276000000000000 0.3475500000000000
0.6524499999999999 0.2724000000000000 0.1524500000000000
0.8475500000000000 0.2276000000000000 0.1524500000000000
0.5975500000000000 0.2724000000000000 0.4024500000000000
0.5975500000000000 0.2276000000000000 0.0975500000000000
0.9024500000000000 0.2724000000000000 0.0975500000000000
0.9024500000000000 0.2276000000000000 0.4024500000000000
0.8475500000000000 0.1524500000000000 0.2276000000000000
0.5975500000000000 0.0975500000000000 0.2276000000000000
0.6524499999999999 0.3475500000000000 0.2276000000000000
0.9024500000000000 0.4024500000000000 0.2276000000000000
0.8475500000000000 0.3475500000000000 0.2724000000000000
0.9024500000000000 0.0975500000000000 0.2724000000000000
0.6524499999999999 0.1524500000000000 0.2724000000000000
0.5975500000000000 0.4024500000000000 0.2724000000000000
0.6524499999999999 0.2276000000000000 0.1524500000000000
0.8475500000000000 0.2724000000000000 0.1524500000000000
0.8475500000000000 0.2276000000000000 0.3475500000000000
0.6524499999999999 0.2724000000000000 0.3475500000000000
0.9024500000000000 0.2276000000000000 0.0975500000000000
0.9024500000000000 0.2724000000000000 0.4024500000000000
0.5975500000000000 0.2276000000000000 0.4024500000000000
0.5975500000000000 0.2724000000000000 0.0975500000000000
0.7724000000000000 0.1524500000000000 0.3475500000000000
0.7276000000000000 0.3475500000000000 0.3475500000000000
0.7724000000000000 0.3475500000000000 0.1524500000000000
0.7276000000000000 0.1524500000000000 0.1524500000000000
0.7724000000000000 0.0975500000000000 0.0975500000000000
0.7276000000000000 0.4024500000000000 0.0975500000000000
0.7724000000000000 0.4024500000000000 0.4024500000000000
0.7276000000000000 0.0975500000000000 0.4024500000000000
0.7276000000000000 0.3475500000000000 0.1524500000000000
0.7724000000000000 0.1524500000000000 0.1524500000000000
0.7276000000000000 0.1524500000000000 0.3475500000000000
0.7724000000000000 0.3475500000000000 0.3475500000000000
0.7276000000000000 0.4024500000000000 0.4024500000000000
0.7724000000000000 0.0975500000000000 0.4024500000000000
0.7276000000000000 0.0975500000000000 0.0975500000000000
0.7724000000000000 0.4024500000000000 0.0975500000000000
0.6524499999999999 0.0975500000000000 0.5224000000000000
0.9024500000000000 0.1524500000000000 0.5224000000000000
0.8475500000000000 0.4024499999999999 0.5224000000000000
0.5975500000000000 0.3475500000000000 0.5224000000000000
0.6524499999999998 0.4024500000000000 0.9776000000000000
0.5975499999999999 0.1524500000000000 0.9776000000000000
0.8475499999999999 0.0975500000000000 0.9776000000000000
0.9024499999999999 0.3475500000000000 0.9776000000000000
0.5224000000000001 0.1524500000000000 0.5975500000000000
0.8475500000000000 0.0224000000000000 0.5975500000000000
0.9776000000000000 0.3475500000000000 0.5975500000000000
0.6524499999999999 0.4776000000000000 0.5975500000000000
0.5224000000000001 0.3475500000000000 0.9024500000000000
0.6524499999999999 0.0224000000000000 0.9024500000000000
0.9776000000000000 0.1524500000000000 0.9024500000000000
0.8475500000000000 0.4776000000000000 0.9024500000000000
0.5975500000000000 0.0224000000000000 0.6524499999999999
0.5975500000000000 0.4776000000000000 0.8475500000000000
0.5224000000000001 0.0975500000000000 0.8475500000000000
0.9024500000000000 0.0224000000000000 0.8475500000000000
0.9776000000000000 0.4024500000000000 0.8475500000000000
0.9024500000000000 0.4776000000000000 0.6524499999999999
0.5224000000000001 0.4024500000000000 0.6524499999999999
0.9776000000000000 0.0975500000000000 0.6524499999999999
0.8475499999999999 0.4024500000000000 0.9776000000000000
0.5975499999999999 0.3475500000000000 0.9776000000000000
0.6524499999999998 0.0975500000000000 0.9776000000000000
0.9024499999999999 0.1524500000000000 0.9776000000000000
0.8475500000000000 0.0975500000000000 0.5224000000000000
0.9024500000000000 0.3475500000000000 0.5224000000000000
0.6524499999999999 0.4024499999999999 0.5224000000000000
0.5975500000000000 0.1524500000000000 0.5224000000000000
0.9776000000000000 0.3475500000000000 0.9024500000000000
0.6524499999999999 0.4776000000000000 0.9024500000000000
0.5224000000000001 0.1524500000000000 0.9024500000000000
0.8475500000000000 0.0224000000000000 0.9024500000000000
0.9776000000000000 0.1524500000000000 0.5975500000000000
0.8475500000000000 0.4776000000000000 0.5975500000000000
0.5224000000000001 0.3475500000000000 0.5975500000000000
0.6524499999999999 0.0224000000000000 0.5975500000000000
0.9024500000000000 0.4776000000000000 0.8475500000000000
0.9024500000000000 0.0224000000000000 0.6524499999999999
0.9776000000000000 0.4024500000000000 0.6524499999999999
0.5975500000000000 0.4776000000000000 0.6524499999999999
0.5224000000000001 0.0975500000000000 0.6524499999999999
0.5975500000000000 0.0224000000000000 0.8475500000000000
0.9776000000000000 0.0975500000000000 0.8475500000000000
0.5224000000000001 0.4024500000000000 0.8475500000000000
0.6524499999999999 0.3475500000000000 0.7724000000000000
0.9024500000000000 0.4024500000000000 0.7724000000000000
0.8475500000000000 0.1524500000000000 0.7724000000000000
0.5975500000000000 0.0975500000000000 0.7724000000000000
0.6524499999999999 0.1524500000000000 0.7276000000000000
0.5975500000000000 0.4024500000000000 0.7276000000000000
0.8475500000000000 0.3475500000000000 0.7276000000000000
0.9024500000000000 0.0975500000000000 0.7276000000000000
0.8475500000000000 0.2724000000000000 0.8475500000000000
0.6524499999999999 0.2276000000000000 0.8475500000000000
0.6524499999999999 0.2723999999999999 0.6524499999999999
0.8475500000000000 0.2276000000000000 0.6524499999999999
0.5975500000000000 0.2724000000000000 0.9024500000000000
0.5975500000000000 0.2276000000000000 0.5975500000000000
0.9024500000000000 0.2723999999999999 0.5975500000000000
0.9024500000000000 0.2276000000000000 0.9024500000000000
0.8475500000000000 0.1524500000000000 0.7276000000000000
0.5975500000000000 0.0975500000000000 0.7276000000000000
0.6524499999999999 0.3475500000000000 0.7276000000000000
0.9024500000000000 0.4024500000000000 0.7276000000000000
0.8475500000000000 0.3475500000000000 0.7724000000000000
0.9024500000000000 0.0975500000000000 0.7724000000000000
0.6524499999999999 0.1524500000000000 0.7724000000000000
0.5975500000000000 0.4024500000000000 0.7724000000000000
0.6524499999999999 0.2276000000000000 0.6524499999999999
0.8475500000000000 0.2723999999999999 0.6524499999999999
0.8475500000000000 0.2276000000000000 0.8475500000000000
0.6524499999999999 0.2724000000000000 0.8475500000000000
0.9024500000000000 0.2276000000000000 0.5975500000000000
0.9024500000000000 0.2724000000000000 0.9024500000000000
0.5975500000000000 0.2276000000000000 0.9024500000000000
0.5975500000000000 0.2723999999999999 0.5975500000000000
0.7724000000000000 0.1524500000000000 0.8475500000000000
0.7276000000000000 0.3475500000000000 0.8475500000000000
0.7724000000000000 0.3475500000000000 0.6524499999999999
0.7276000000000000 0.1524500000000000 0.6524499999999999
0.7724000000000000 0.0975500000000000 0.5975500000000000
0.7276000000000000 0.4024500000000000 0.5975500000000000
0.7724000000000000 0.4024500000000000 0.9024500000000000
0.7276000000000000 0.0975500000000000 0.9024500000000000
0.7276000000000000 0.3475500000000000 0.6524499999999999
0.7724000000000000 0.1524500000000000 0.6524499999999999
0.7276000000000000 0.1524500000000000 0.8475500000000000
0.7724000000000000 0.3475500000000000 0.8475500000000000
0.7276000000000000 0.4024500000000000 0.9024500000000000
0.7724000000000000 0.0975500000000000 0.9024500000000000
0.7276000000000000 0.0975500000000000 0.5975500000000000
0.7724000000000000 0.4024500000000000 0.5975500000000000
0.6524499999999999 0.5975500000000000 0.0224000000000000
0.9024500000000000 0.6524499999999999 0.0224000000000000
0.8475500000000000 0.9024500000000000 0.0224000000000000
0.5975500000000000 0.8475500000000000 0.0224000000000000
0.6524499999999999 0.9024500000000000 0.4776000000000000
0.5975500000000000 0.6524499999999999 0.4776000000000000
0.8475500000000000 0.5975500000000000 0.4776000000000000
0.9024500000000000 0.8475500000000000 0.4776000000000000
0.5224000000000001 0.6524499999999999 0.0975500000000000
0.8475500000000000 0.5224000000000000 0.0975500000000000
0.9776000000000000 0.8475500000000000 0.0975500000000000
0.6524499999999998 0.9776000000000000 0.0975500000000000
0.5224000000000001 0.8475500000000000 0.4024500000000000
0.6524499999999999 0.5224000000000000 0.4024500000000000
0.9776000000000000 0.6524499999999999 0.4024500000000000
0.8475499999999999 0.9776000000000000 0.4024500000000000
0.5975500000000000 0.5224000000000000 0.1524500000000000
0.5975499999999999 0.9776000000000000 0.3475500000000000
0.5224000000000001 0.5975500000000000 0.3475500000000000
0.9024500000000000 0.5224000000000000 0.3475500000000000
0.9776000000000000 0.9024500000000000 0.3475500000000000
0.9024499999999999 0.9776000000000000 0.1524500000000000
0.5224000000000001 0.9024500000000000 0.1524500000000000
0.9776000000000000 0.5975500000000000 0.1524500000000000
0.8475500000000000 0.9024500000000000 0.4776000000000000
0.5975500000000000 0.8475500000000000 0.4776000000000000
0.6524499999999999 0.5975500000000000 0.4776000000000000
0.9024500000000000 0.6524499999999999 0.4776000000000000
0.8475500000000000 0.5975500000000000 0.0224000000000000
0.9024500000000000 0.8475500000000000 0.0224000000000000
0.6524499999999999 0.9024500000000000 0.0224000000000000
0.5975500000000000 0.6524499999999999 0.0224000000000000
0.9776000000000000 0.8475500000000000 0.4024500000000000
0.6524499999999998 0.9776000000000000 0.4024500000000000
0.5224000000000001 0.6524499999999999 0.4024500000000000
0.8475500000000000 0.5224000000000000 0.4024500000000000
0.9776000000000000 0.6524499999999999 0.0975500000000000
0.8475499999999999 0.9776000000000000 0.0975500000000000
0.5224000000000001 0.8475500000000000 0.0975500000000000
0.6524499999999999 0.5224000000000000 0.0975500000000000
0.9024499999999999 0.9776000000000000 0.3475500000000000
0.9024500000000000 0.5224000000000000 0.1524500000000000
0.9776000000000000 0.9024500000000000 0.1524500000000000
0.5975499999999999 0.9776000000000000 0.1524500000000000
0.5224000000000001 0.5975500000000000 0.1524500000000000
0.5975500000000000 0.5224000000000000 0.3475500000000000
0.9776000000000000 0.5975500000000000 0.3475500000000000
0.5224000000000001 0.9024500000000000 0.3475500000000000
0.6524499999999999 0.8475500000000000 0.2724000000000000
0.9024500000000000 0.9024500000000000 0.2724000000000000
0.8475500000000000 0.6524499999999999 0.2724000000000000
0.5975500000000000 0.5975500000000000 0.2724000000000000
0.6524499999999999 0.6524499999999999 0.2276000000000000
0.5975500000000000 0.9024500000000000 0.2276000000000000
0.8475500000000000 0.8475500000000000 0.2276000000000000
0.9024500000000000 0.5975500000000000 0.2276000000000000
0.8475500000000000 0.7724000000000000 0.3475500000000000
0.6524499999999999 0.7276000000000000 0.3475500000000000
0.6524499999999999 0.7724000000000000 0.1524500000000000
0.8475500000000000 0.7276000000000000 0.1524500000000000
0.5975500000000000 0.7724000000000000 0.4024500000000000
0.5975500000000000 0.7276000000000000 0.0975500000000000
0.9024500000000000 0.7724000000000000 0.0975500000000000
0.9024500000000000 0.7276000000000000 0.4024500000000000
0.8475500000000000 0.6524499999999999 0.2276000000000000
0.5975500000000000 0.5975500000000000 0.2276000000000000
0.6524499999999999 0.8475500000000000 0.2276000000000000
0.9024500000000000 0.9024500000000000 0.2276000000000000
0.8475500000000000 0.8475500000000000 0.2724000000000000
0.9024500000000000 0.5975500000000000 0.2724000000000000
0.6524499999999999 0.6524499999999999 0.2724000000000000
0.5975500000000000 0.9024500000000000 0.2724000000000000
0.6524499999999999 0.7276000000000000 0.1524500000000000
0.8475500000000000 0.7724000000000000 0.1524500000000000
0.8475500000000000 0.7276000000000000 0.3475500000000000
0.6524499999999999 0.7724000000000000 0.3475500000000000
0.9024500000000000 0.7276000000000000 0.0975500000000000
0.9024500000000000 0.7724000000000000 0.4024500000000000
0.5975500000000000 0.7276000000000000 0.4024500000000000
0.5975500000000000 0.7724000000000000 0.0975500000000000
0.7724000000000000 0.6524499999999999 0.3475500000000000
0.7276000000000000 0.8475500000000000 0.3475500000000000
0.7724000000000000 0.8475500000000000 0.1524500000000000
0.7276000000000000 0.6524499999999999 0.1524500000000000
0.7724000000000000 0.5975500000000000 0.0975500000000000
0.7276000000000000 0.9024500000000000 0.0975500000000000
0.7724000000000000 0.9024500000000000 0.4024500000000000
0.7276000000000000 0.5975500000000000 0.4024500000000000
0.7276000000000000 0.8475500000000000 0.1524500000000000
0.7724000000000000 0.6524499999999999 0.1524500000000000
0.7276000000000000 0.6524499999999999 0.3475500000000000
0.7724000000000000 0.8475500000000000 0.3475500000000000
0.7276000000000000 0.9024500000000000 0.4024500000000000
0.7724000000000000 0.5975500000000000 0.4024500000000000
0.7276000000000000 0.5975500000000000 0.0975500000000000
0.7724000000000000 0.9024500000000000 0.0975500000000000
0.6524499999999999 0.5975500000000000 0.5224000000000000
0.9024500000000000 0.6524499999999999 0.5224000000000000
0.8475500000000000 0.9024500000000000 0.5224000000000000
0.5975500000000000 0.8475500000000000 0.5224000000000000
0.6524499999999998 0.9024499999999999 0.9776000000000000
0.5975500000000000 0.6524499999999998 0.9776000000000000
0.8475499999999999 0.5975499999999999 0.9776000000000000
0.9024499999999999 0.8475499999999999 0.9776000000000000
0.5224000000000001 0.6524499999999999 0.5975500000000000
0.8475500000000000 0.5224000000000001 0.5975500000000000
0.9776000000000000 0.8475500000000000 0.5975500000000000
0.6524499999999998 0.9776000000000000 0.5975500000000000
0.5224000000000001 0.8475500000000000 0.9024500000000000
0.6524499999999999 0.5224000000000001 0.9024500000000000
0.9776000000000000 0.6524499999999999 0.9024500000000000
0.8475499999999999 0.9776000000000000 0.9024500000000000
0.5975500000000000 0.5224000000000001 0.6524499999999999
0.5975500000000000 0.9776000000000000 0.8475500000000000
0.5224000000000001 0.5975500000000000 0.8475500000000000
0.9024500000000000 0.5224000000000001 0.8475500000000000
0.9776000000000000 0.9024500000000000 0.8475500000000000
0.9024499999999999 0.9776000000000000 0.6524499999999999
0.5224000000000001 0.9024500000000000 0.6524499999999999
0.9776000000000000 0.5975500000000000 0.6524499999999999
0.8475499999999999 0.9024499999999999 0.9776000000000000
0.5975500000000000 0.8475499999999999 0.9776000000000000
0.6524499999999998 0.5975499999999999 0.9776000000000000
0.9024499999999999 0.6524499999999998 0.9776000000000000
0.8475500000000000 0.5975500000000000 0.5224000000000000
0.9024500000000000 0.8475500000000000 0.5224000000000000
0.6524499999999999 0.9024500000000000 0.5224000000000000
0.5975500000000000 0.6524499999999999 0.5224000000000000
0.9776000000000000 0.8475500000000000 0.9024500000000000
0.6524499999999998 0.9776000000000000 0.9024500000000000
0.5224000000000001 0.6524499999999999 0.9024500000000000
0.8475500000000000 0.5224000000000001 0.9024500000000000
0.9776000000000000 0.6524499999999999 0.5975500000000000
0.8475499999999999 0.9776000000000000 0.5975500000000000
0.5224000000000001 0.8475500000000000 0.5975500000000000
0.6524499999999999 0.5224000000000001 0.5975500000000000
0.9024499999999999 0.9776000000000000 0.8475500000000000
0.9024500000000000 0.5224000000000001 0.6524499999999999
0.9776000000000000 0.9024500000000000 0.6524499999999999
0.5975500000000000 0.9776000000000000 0.6524499999999999
0.5224000000000001 0.5975500000000000 0.6524499999999999
0.5975500000000000 0.5224000000000001 0.8475500000000000
0.9776000000000000 0.5975500000000000 0.8475500000000000
0.5224000000000001 0.9024500000000000 0.8475500000000000
0.6524499999999999 0.8475500000000000 0.7724000000000000
0.9024500000000000 0.9024500000000000 0.7724000000000000
0.8475500000000000 0.6524499999999999 0.7724000000000000
0.5975500000000001 0.5975500000000000 0.7724000000000000
0.6524499999999999 0.6524499999999999 0.7276000000000000
0.5975500000000001 0.9024500000000000 0.7276000000000000
0.8475500000000000 0.8475500000000000 0.7276000000000000
0.9024500000000000 0.5975500000000000 0.7276000000000000
0.8475500000000000 0.7724000000000000 0.8475500000000000
0.6524499999999999 0.7276000000000000 0.8475500000000000
0.6524499999999999 0.7724000000000000 0.6524499999999999
0.8475500000000000 0.7276000000000000 0.6524499999999999
0.5975500000000001 0.7724000000000000 0.9024500000000000
0.5975500000000001 0.7276000000000000 0.5975500000000000
0.9024500000000000 0.7724000000000000 0.5975500000000000
0.9024500000000000 0.7276000000000000 0.9024500000000000
0.8475500000000000 0.6524499999999999 0.7276000000000000
0.5975500000000001 0.5975500000000000 0.7276000000000000
0.6524499999999999 0.8475500000000000 0.7276000000000000
0.9024500000000000 0.9024500000000000 0.7276000000000000
0.8475500000000000 0.8475500000000000 0.7724000000000000
0.9024500000000000 0.5975500000000000 0.7724000000000000
0.6524499999999999 0.6524499999999999 0.7724000000000000
0.5975500000000001 0.9024500000000000 0.7724000000000000
0.6524499999999999 0.7276000000000000 0.6524499999999999
0.8475500000000000 0.7724000000000000 0.6524499999999999
0.8475500000000000 0.7276000000000000 0.8475500000000000
0.6524499999999999 0.7724000000000000 0.8475500000000000
0.9024500000000000 0.7276000000000000 0.5975500000000000
0.9024500000000000 0.7724000000000000 0.9024500000000000
0.5975500000000001 0.7276000000000000 0.9024500000000000
0.5975500000000001 0.7724000000000000 0.5975500000000000
0.7724000000000000 0.6524499999999999 0.8475500000000000
0.7276000000000000 0.8475500000000000 0.8475500000000000
0.7724000000000000 0.8475500000000000 0.6524499999999999
0.7276000000000000 0.6524499999999999 0.6524499999999999
0.7724000000000000 0.5975500000000000 0.5975500000000000
0.7276000000000000 0.9024500000000000 0.5975500000000000
0.7724000000000000 0.9024500000000000 0.9024500000000000
0.7276000000000000 0.5975500000000000 0.9024500000000000
0.7276000000000000 0.8475500000000000 0.6524499999999999
0.7724000000000000 0.6524499999999999 0.6524499999999999
0.7276000000000000 0.6524499999999999 0.8475500000000000
0.7724000000000000 0.8475500000000000 0.8475500000000000
0.7276000000000000 0.9024500000000000 0.9024500000000000
0.7724000000000000 0.5975500000000000 0.9024500000000000
0.7276000000000000 0.5975500000000000 0.5975500000000000
0.7724000000000000 0.9024500000000000 0.5975500000000000
