# framework
1.000000
 49.6433999999999997   0.0000000000000000         0.0000000000
-24.8216999999999928  42.9924455302324020         0.0000000000
  0.0000000000000035   0.0000000000000060        56.7343000000
Zn O C H 
192 624 2592 1152 
Direct
0.1666650000000000 0.3333350000000000 0.9616799999999999
0.2095900000000000 0.3547950000000000 0.0071600000000000
0.3541099999999999 0.1458900000000000 0.1507200000000000
0.3333349999999999 0.1666650000000000 0.1987000000000000
0.1452050000000000 0.3547950000000000 0.0071600000000000
0.3541100000000000 0.2082200000000000 0.1507200000000000
0.1452050000000000 0.2904100000000000 0.0071600000000000
0.2917800000000000 0.1458900000000000 0.1507200000000000
0.3333349999999999 0.1666650000000000 0.0383200000000000
0.3547949999999999 0.2095900000000000 0.9928399999999997
0.1458900000000000 0.3541100000000000 0.8492799999999998
0.1666650000000000 0.3333350000000000 0.8012999999999999
0.2904099999999999 0.1452050000000000 0.9928399999999997
0.1458900000000000 0.2917800000000000 0.8492799999999998
0.3547949999999999 0.1452050000000000 0.9928399999999997
0.2082200000000000 0.3541100000000000 0.8492799999999998
0.4999983333333332 0.0000016666666667 0.2950133333333333
0.0429233333333333 0.0214616666666666 0.3404933333333333
0.1874433333333333 0.3125566666666666 0.4840533333333333
0.1666683333333333 0.3333316666666667 0.5320333333333332
0.4999983333333333 0.4999966666666666 0.2950133333333333
0.4785383333333332 0.0214616666666667 0.3404933333333333
0.1874433333333334 0.3748866666666666 0.4840533333333333
0.0000033333333334 0.0000016666666666 0.2950133333333333
0.4785383333333332 0.4570766666666667 0.3404933333333333
0.1251133333333333 0.3125566666666667 0.4840533333333333
0.1666683333333333 0.3333316666666667 0.3716533333333333
0.1881283333333332 0.3762566666666667 0.3261733333333333
0.4792233333333333 0.0207766666666667 0.1826133333333333
0.4999983333333333 0.0000016666666667 0.1346333333333333
0.1237433333333333 0.3118716666666666 0.3261733333333333
0.4792233333333333 0.4584466666666666 0.1826133333333333
0.4999983333333333 0.4999966666666666 0.1346333333333333
0.1881283333333333 0.3118716666666666 0.3261733333333333
0.0415533333333333 0.0207766666666667 0.1826133333333333
0.0000033333333334 0.0000016666666666 0.1346333333333333
0.3333316666666666 0.1666683333333333 0.6283466666666665
0.3762566666666666 0.1881283333333332 0.6738266666666665
0.0207766666666667 0.4792233333333333 0.8173866666666665
0.0000016666666667 0.4999983333333333 0.8653666666666665
0.3118716666666666 0.1881283333333333 0.6738266666666665
0.0207766666666667 0.0415533333333333 0.8173866666666665
0.0000016666666666 0.0000033333333334 0.8653666666666665
0.3118716666666666 0.1237433333333333 0.6738266666666665
0.4584466666666666 0.4792233333333333 0.8173866666666665
0.4999966666666666 0.4999983333333333 0.8653666666666665
0.0000016666666667 0.4999983333333333 0.7049866666666664
0.0214616666666666 0.0429233333333333 0.6595066666666666
0.3125566666666666 0.1874433333333333 0.5159466666666666
0.3333316666666667 0.1666683333333333 0.4679666666666665
0.0000016666666666 0.0000033333333334 0.7049866666666664
0.4570766666666666 0.4785383333333332 0.6595066666666666
0.3125566666666667 0.1251133333333333 0.5159466666666666
0.4999966666666665 0.4999983333333333 0.7049866666666664
0.0214616666666667 0.4785383333333333 0.6595066666666666
0.3748866666666666 0.1874433333333333 0.5159466666666666
0.1666650000000000 0.8333349999999999 0.9616799999999999
0.2095900000000001 0.8547950000000000 0.0071600000000000
0.3541100000000000 0.6458900000000000 0.1507200000000000
0.3333349999999999 0.6666650000000001 0.1987000000000000
0.1452050000000001 0.8547950000000000 0.0071600000000000
0.3541100000000000 0.7082200000000000 0.1507200000000000
0.1452050000000000 0.7904100000000001 0.0071600000000000
0.2917800000000000 0.6458900000000000 0.1507200000000000
0.3333350000000000 0.6666650000000001 0.0383200000000000
0.3547950000000000 0.7095899999999999 0.9928399999999997
0.1458900000000000 0.8541099999999999 0.8492799999999998
0.1666650000000000 0.8333349999999999 0.8012999999999999
0.2904100000000000 0.6452050000000000 0.9928399999999997
0.1458900000000002 0.7917800000000002 0.8492799999999998
0.3547950000000000 0.6452050000000000 0.9928399999999997
0.2082200000000000 0.8541100000000000 0.8492799999999998
0.0429233333333334 0.5214616666666666 0.3404933333333333
0.1874433333333333 0.8125566666666664 0.4840533333333333
0.1666683333333333 0.8333316666666665 0.5320333333333332
0.4785383333333333 0.5214616666666668 0.3404933333333333
0.1874433333333333 0.8748866666666665 0.4840533333333333
0.0000033333333334 0.5000016666666667 0.2950133333333333
0.4785383333333332 0.9570766666666666 0.3404933333333333
0.1251133333333333 0.8125566666666666 0.4840533333333333
0.1666683333333333 0.8333316666666666 0.3716533333333333
0.1881283333333332 0.8762566666666666 0.3261733333333333
0.4792233333333332 0.5207766666666667 0.1826133333333333
0.1237433333333334 0.8118716666666667 0.3261733333333333
0.4792233333333333 0.9584466666666666 0.1826133333333333
0.1881283333333333 0.8118716666666667 0.3261733333333333
0.0415533333333333 0.5207766666666667 0.1826133333333333
0.0000033333333334 0.5000016666666667 0.1346333333333333
0.3333316666666666 0.6666683333333333 0.6283466666666665
0.3762566666666666 0.6881283333333331 0.6738266666666665
0.0207766666666668 0.9792233333333334 0.8173866666666665
0.3118716666666666 0.6881283333333332 0.6738266666666665
0.0207766666666667 0.5415533333333333 0.8173866666666665
0.3118716666666667 0.6237433333333332 0.6738266666666665
0.4584466666666667 0.9792233333333334 0.8173866666666665
0.4999966666666667 0.9999983333333334 0.8653666666666665
0.0214616666666666 0.5429233333333333 0.6595066666666666
0.3125566666666667 0.6874433333333333 0.5159466666666666
0.3333316666666667 0.6666683333333333 0.4679666666666665
0.4570766666666667 0.9785383333333333 0.6595066666666666
0.3125566666666667 0.6251133333333332 0.5159466666666666
0.4999966666666666 0.9999983333333334 0.7049866666666664
0.0214616666666668 0.9785383333333333 0.6595066666666666
0.3748866666666667 0.6874433333333333 0.5159466666666666
0.6666650000000000 0.3333350000000000 0.9616799999999999
0.7095899999999999 0.3547950000000000 0.0071600000000000
0.8541099999999998 0.1458900000000000 0.1507200000000000
0.8333349999999998 0.1666650000000000 0.1987000000000000
0.6452049999999999 0.3547950000000000 0.0071600000000000
0.8541099999999999 0.2082200000000000 0.1507200000000000
0.6452049999999999 0.2904100000000000 0.0071600000000000
0.7917799999999999 0.1458900000000000 0.1507200000000000
0.8333349999999998 0.1666650000000000 0.0383200000000000
0.8547949999999999 0.2095900000000000 0.9928399999999997
0.6458899999999999 0.3541100000000000 0.8492799999999998
0.6666650000000000 0.3333350000000000 0.8012999999999999
0.7904099999999998 0.1452050000000000 0.9928399999999997
0.6458900000000000 0.2917800000000000 0.8492799999999998
0.8547949999999997 0.1452050000000000 0.9928399999999997
0.7082200000000000 0.3541100000000000 0.8492799999999998
0.5429233333333332 0.0214616666666666 0.3404933333333333
0.6874433333333332 0.3125566666666666 0.4840533333333333
0.6666683333333332 0.3333316666666667 0.5320333333333332
0.9785383333333332 0.0214616666666667 0.3404933333333333
0.6874433333333332 0.3748866666666666 0.4840533333333333
0.9785383333333332 0.4570766666666667 0.3404933333333333
0.6251133333333332 0.3125566666666667 0.4840533333333333
0.6666683333333332 0.3333316666666667 0.3716533333333333
0.6881283333333331 0.3762566666666667 0.3261733333333333
0.9792233333333331 0.0207766666666667 0.1826133333333333
0.6237433333333332 0.3118716666666666 0.3261733333333333
0.9792233333333332 0.4584466666666666 0.1826133333333333
0.6881283333333332 0.3118716666666666 0.3261733333333333
0.5415533333333332 0.0207766666666667 0.1826133333333333
0.8333316666666665 0.1666683333333333 0.6283466666666665
0.8762566666666665 0.1881283333333332 0.6738266666666665
0.5207766666666666 0.4792233333333333 0.8173866666666665
0.8118716666666664 0.1881283333333333 0.6738266666666665
0.5207766666666666 0.0415533333333333 0.8173866666666665
0.8118716666666665 0.1237433333333333 0.6738266666666665
0.9584466666666664 0.4792233333333333 0.8173866666666665
0.5214616666666665 0.0429233333333333 0.6595066666666666
0.8125566666666665 0.1874433333333333 0.5159466666666666
0.8333316666666664 0.1666683333333333 0.4679666666666665
0.9570766666666665 0.4785383333333332 0.6595066666666666
0.8125566666666665 0.1251133333333333 0.5159466666666666
0.5214616666666666 0.4785383333333333 0.6595066666666666
0.8748866666666664 0.1874433333333333 0.5159466666666666
0.6666650000000000 0.8333349999999999 0.9616799999999999
0.7095899999999999 0.8547950000000000 0.0071600000000000
0.8541099999999998 0.6458900000000000 0.1507200000000000
0.8333349999999999 0.6666650000000001 0.1987000000000000
0.6452050000000000 0.8547950000000000 0.0071600000000000
0.8541099999999999 0.7082200000000000 0.1507200000000000
0.6452049999999999 0.7904100000000001 0.0071600000000000
0.7917799999999999 0.6458900000000000 0.1507200000000000
0.8333349999999999 0.6666650000000001 0.0383200000000000
0.8547950000000000 0.7095899999999999 0.9928399999999997
0.6458899999999999 0.8541099999999999 0.8492799999999998
0.6666650000000000 0.8333349999999999 0.8012999999999999
0.7904099999999999 0.6452050000000000 0.9928399999999997
0.6458900000000002 0.7917800000000002 0.8492799999999998
0.8547950000000000 0.6452050000000000 0.9928399999999997
0.7082200000000000 0.8541100000000000 0.8492799999999998
0.5429233333333333 0.5214616666666666 0.3404933333333333
0.6874433333333331 0.8125566666666664 0.4840533333333333
0.6666683333333332 0.8333316666666665 0.5320333333333332
0.9785383333333332 0.5214616666666668 0.3404933333333333
0.6874433333333332 0.8748866666666665 0.4840533333333333
0.9785383333333332 0.9570766666666666 0.3404933333333333
0.6251133333333332 0.8125566666666666 0.4840533333333333
0.6666683333333333 0.8333316666666666 0.3716533333333333
0.6881283333333331 0.8762566666666666 0.3261733333333333
0.9792233333333331 0.5207766666666667 0.1826133333333333
0.6237433333333333 0.8118716666666667 0.3261733333333333
0.9792233333333332 0.9584466666666666 0.1826133333333333
0.6881283333333333 0.8118716666666667 0.3261733333333333
0.5415533333333332 0.5207766666666667 0.1826133333333333
0.8333316666666666 0.6666683333333333 0.6283466666666665
0.8762566666666665 0.6881283333333331 0.6738266666666665
0.5207766666666667 0.9792233333333334 0.8173866666666665
0.8118716666666665 0.6881283333333332 0.6738266666666665
0.5207766666666666 0.5415533333333333 0.8173866666666665
0.8118716666666665 0.6237433333333332 0.6738266666666665
0.9584466666666666 0.9792233333333334 0.8173866666666665
0.5214616666666665 0.5429233333333333 0.6595066666666666
0.8125566666666665 0.6874433333333333 0.5159466666666666
0.8333316666666666 0.6666683333333333 0.4679666666666665
0.9570766666666667 0.9785383333333333 0.6595066666666666
0.8125566666666666 0.6251133333333332 0.5159466666666666
0.5214616666666667 0.9785383333333333 0.6595066666666666
0.8748866666666665 0.6874433333333333 0.5159466666666666
0.1666650000000000 0.3333349999999999 0.9955399999999998
0.3333349999999999 0.1666650000000000 0.1630300000000000
0.4791899999999999 0.0208100000000000 0.2813200000000000
0.4648849999999999 0.0351150000000000 0.3138799999999999
0.3709799999999999 0.1290200000000000 0.1730699999999999
0.3562449999999999 0.1437550000000000 0.2045899999999999
0.2186300000000000 0.3902650000000000 0.0260200000000000
0.3273699999999999 0.1101650000000000 0.1308000000000000
0.4791899999999999 0.4583799999999999 0.2813200000000000
0.4648850000000000 0.4297700000000000 0.3138799999999999
0.3709800000000000 0.2419600000000000 0.1730699999999999
0.3562449999999999 0.2124900000000000 0.2045899999999999
0.1097350000000000 0.3283650000000000 0.0260200000000000
0.3898349999999999 0.2172050000000000 0.1308000000000000
0.0416200000000000 0.0208100000000000 0.2813200000000000
0.0702300000000000 0.0351150000000000 0.3138799999999999
0.2580400000000000 0.1290200000000000 0.1730699999999999
0.2875100000000000 0.1437550000000000 0.2045899999999999
0.1716350000000000 0.2813700000000000 0.0260200000000000
0.2827950000000000 0.1726300000000000 0.1308000000000000
0.3333349999999999 0.1666650000000000 0.0044600000000000
0.1666650000000000 0.3333350000000000 0.8369699999999998
0.0208100000000000 0.4791899999999999 0.7186799999999999
0.0351150000000000 0.4648849999999999 0.6861200000000000
0.1290200000000000 0.3709800000000000 0.8269299999999997
0.1437550000000000 0.3562450000000000 0.7954099999999998
0.3902650000000000 0.2186300000000000 0.9739799999999998
0.1101650000000000 0.3273700000000000 0.8691999999999999
0.0208100000000000 0.0416200000000000 0.7186799999999999
0.0351150000000000 0.0702300000000000 0.6861200000000000
0.1290200000000000 0.2580400000000000 0.8269299999999997
0.1437550000000000 0.2875100000000000 0.7954099999999998
0.2813700000000000 0.1716350000000000 0.9739799999999998
0.1726300000000000 0.2827950000000000 0.8691999999999999
0.4583799999999999 0.4791899999999999 0.7186799999999999
0.4297699999999999 0.4648849999999999 0.6861200000000000
0.2419600000000000 0.3709800000000000 0.8269299999999997
0.2124900000000000 0.3562450000000000 0.7954099999999998
0.3283650000000000 0.1097350000000000 0.9739799999999998
0.2172050000000000 0.3898350000000000 0.8691999999999999
0.2813700000000000 0.1097350000000000 0.9739799999999998
0.1726300000000000 0.3898350000000000 0.8691999999999999
0.3902649999999999 0.1716350000000000 0.9739799999999998
0.1101650000000000 0.2827950000000000 0.8691999999999999
0.3283650000000000 0.2186300000000000 0.9739799999999998
0.2172050000000000 0.3273700000000000 0.8691999999999999
0.1097350000000000 0.2813700000000000 0.0260200000000000
0.3898349999999999 0.1726300000000000 0.1308000000000000
0.2186300000000000 0.3283650000000000 0.0260200000000000
0.3273699999999999 0.2172050000000000 0.1308000000000000
0.1716350000000000 0.3902650000000000 0.0260200000000000
0.2827950000000000 0.1101650000000000 0.1308000000000000
0.4999983333333332 0.0000016666666667 0.3288733333333333
0.1666683333333333 0.3333316666666667 0.4963633333333332
0.3125233333333332 0.1874766666666667 0.6146533333333332
0.2982183333333332 0.2017816666666666 0.6472133333333332
0.2043133333333333 0.2956866666666667 0.5064033333333332
0.1895783333333333 0.3104216666666667 0.5379233333333332
0.0519633333333334 0.0569316666666666 0.3593533333333332
0.1607033333333333 0.2768316666666666 0.4641333333333332
0.4999983333333333 0.4999966666666667 0.3288733333333333
0.3125233333333332 0.1250466666666666 0.6146533333333332
0.2982183333333332 0.0964366666666666 0.6472133333333332
0.2043133333333333 0.4086266666666666 0.5064033333333332
0.1895783333333333 0.3791566666666666 0.5379233333333332
0.4430683333333333 0.4950316666666666 0.3593533333333332
0.2231683333333333 0.3838716666666666 0.4641333333333332
0.0000033333333334 0.0000016666666666 0.3288733333333333
0.3749533333333332 0.1874766666666666 0.6146533333333332
0.4035633333333332 0.2017816666666666 0.6472133333333332
0.0913733333333334 0.2956866666666667 0.5064033333333332
0.1208433333333333 0.3104216666666667 0.5379233333333332
0.0049683333333333 0.4480366666666667 0.3593533333333332
0.1161283333333333 0.3392966666666667 0.4641333333333332
0.1666683333333333 0.3333316666666667 0.3377933333333333
0.4999983333333333 0.0000016666666667 0.1703033333333333
0.3541433333333333 0.1458566666666666 0.0520133333333333
0.3684483333333333 0.1315516666666666 0.0194533333333333
0.4623533333333332 0.0376466666666666 0.1602633333333333
0.4770883333333333 0.0229116666666667 0.1287433333333333
0.2235983333333333 0.3852966666666666 0.3073133333333333
0.4434983333333332 0.4940366666666666 0.2025333333333333
0.4999983333333333 0.4999966666666666 0.1703033333333333
0.3541433333333333 0.2082866666666666 0.0520133333333333
0.3684483333333333 0.2368966666666666 0.0194533333333333
0.4623533333333333 0.4247066666666666 0.1602633333333333
0.4770883333333333 0.4541766666666667 0.1287433333333333
0.1147033333333333 0.3383016666666666 0.3073133333333333
0.0059633333333333 0.4494616666666665 0.2025333333333333
0.0000033333333334 0.0000016666666666 0.1703033333333333
0.2917133333333332 0.1458566666666667 0.0520133333333333
0.2631033333333332 0.1315516666666667 0.0194533333333333
0.0752933333333333 0.0376466666666667 0.1602633333333333
0.0458233333333333 0.0229116666666667 0.1287433333333333
0.1616983333333333 0.2764016666666666 0.3073133333333333
0.0505383333333334 0.0565016666666667 0.2025333333333333
0.1147033333333333 0.2764016666666666 0.3073133333333333
0.0059633333333333 0.0565016666666667 0.2025333333333333
0.2235983333333333 0.3383016666666666 0.3073133333333333
0.4434983333333332 0.4494616666666665 0.2025333333333333
0.1616983333333333 0.3852966666666666 0.3073133333333333
0.0505383333333333 0.4940366666666666 0.2025333333333333
0.4430683333333333 0.4480366666666667 0.3593533333333332
0.2231683333333333 0.3392966666666667 0.4641333333333332
0.0519633333333334 0.4950316666666666 0.3593533333333332
0.1607033333333333 0.3838716666666666 0.4641333333333332
0.0049683333333332 0.0569316666666666 0.3593533333333332
0.1161283333333333 0.2768316666666666 0.4641333333333332
0.3333316666666666 0.1666683333333333 0.6622066666666665
0.0000016666666667 0.4999983333333333 0.8296966666666665
0.1458566666666666 0.3541433333333333 0.9479866666666665
0.1315516666666666 0.3684483333333333 0.9805466666666666
0.0376466666666666 0.4623533333333332 0.8397366666666665
0.0229116666666666 0.4770883333333333 0.8712566666666665
0.3852966666666665 0.2235983333333333 0.6926866666666666
0.4940366666666666 0.4434983333333333 0.7974666666666664
0.0000016666666666 0.0000033333333334 0.8296966666666665
0.1458566666666666 0.2917133333333333 0.9479866666666665
0.1315516666666667 0.2631033333333332 0.9805466666666666
0.0376466666666667 0.0752933333333333 0.8397366666666665
0.0229116666666667 0.0458233333333333 0.8712566666666665
0.2764016666666666 0.1616983333333333 0.6926866666666666
0.0565016666666667 0.0505383333333334 0.7974666666666664
0.4999966666666666 0.4999983333333333 0.8296966666666665
0.2082866666666666 0.3541433333333333 0.9479866666666665
0.2368966666666666 0.3684483333333333 0.9805466666666666
0.4247066666666666 0.4623533333333333 0.8397366666666665
0.4541766666666666 0.4770883333333333 0.8712566666666665
0.3383016666666666 0.1147033333333333 0.6926866666666666
0.4494616666666666 0.0059633333333333 0.7974666666666664
0.0000016666666667 0.4999983333333333 0.6711266666666665
0.3333316666666667 0.1666683333333333 0.5036366666666665
0.1874766666666666 0.3125233333333332 0.3853466666666665
0.2017816666666666 0.2982183333333333 0.3527866666666665
0.2956866666666667 0.2043133333333334 0.4935966666666665
0.3104216666666666 0.1895783333333333 0.4620766666666665
0.0569316666666666 0.0519633333333334 0.6406466666666665
0.2768316666666666 0.1607033333333333 0.5358666666666665
0.0000016666666666 0.0000033333333334 0.6711266666666665
0.1874766666666666 0.3749533333333333 0.3853466666666665
0.2017816666666666 0.4035633333333333 0.3527866666666665
0.2956866666666666 0.0913733333333333 0.4935966666666665
0.3104216666666667 0.1208433333333333 0.4620766666666665
0.4480366666666665 0.0049683333333332 0.6406466666666665
0.3392966666666666 0.1161283333333333 0.5358666666666665
0.4999966666666665 0.4999983333333333 0.6711266666666665
0.1250466666666666 0.3125233333333333 0.3853466666666665
0.0964366666666666 0.2982183333333333 0.3527866666666665
0.4086266666666666 0.2043133333333333 0.4935966666666665
0.3791566666666666 0.1895783333333333 0.4620766666666665
0.4950316666666666 0.4430683333333333 0.6406466666666665
0.3838716666666666 0.2231683333333333 0.5358666666666665
0.4480366666666666 0.4430683333333333 0.6406466666666665
0.3392966666666667 0.2231683333333333 0.5358666666666665
0.0569316666666666 0.0049683333333332 0.6406466666666665
0.2768316666666666 0.1161283333333333 0.5358666666666665
0.4950316666666665 0.0519633333333334 0.6406466666666665
0.3838716666666666 0.1607033333333333 0.5358666666666665
0.2764016666666666 0.1147033333333333 0.6926866666666666
0.0565016666666667 0.0059633333333333 0.7974666666666664
0.3852966666666665 0.1616983333333333 0.6926866666666666
0.4940366666666666 0.0505383333333334 0.7974666666666664
0.3383016666666666 0.2235983333333333 0.6926866666666666
0.4494616666666666 0.4434983333333333 0.7974666666666664
0.1666650000000000 0.8333349999999999 0.9955399999999998
0.3333350000000000 0.6666650000000001 0.1630300000000000
0.4791899999999999 0.5208100000000000 0.2813200000000000
0.4648849999999999 0.5351150000000001 0.3138799999999999
0.3709800000000000 0.6290200000000000 0.1730699999999999
0.3562449999999999 0.6437550000000000 0.2045899999999999
0.2186300000000000 0.8902650000000000 0.0260200000000000
0.3273700000000000 0.6101650000000000 0.1308000000000000
0.4791899999999999 0.9583799999999999 0.2813200000000000
0.4648849999999999 0.9297700000000000 0.3138799999999999
0.3709800000000000 0.7419600000000000 0.1730699999999999
0.3562450000000000 0.7124900000000000 0.2045899999999999
0.1097350000000000 0.8283649999999999 0.0260200000000000
0.3898350000000000 0.7172050000000000 0.1308000000000000
0.0416200000000001 0.5208100000000000 0.2813200000000000
0.0702300000000001 0.5351150000000001 0.3138799999999999
0.2580400000000000 0.6290200000000000 0.1730699999999999
0.2875100000000000 0.6437550000000001 0.2045899999999999
0.1716350000000000 0.7813700000000000 0.0260200000000000
0.2827950000000000 0.6726300000000001 0.1308000000000000
0.3333350000000000 0.6666650000000001 0.0044600000000000
0.1666650000000000 0.8333349999999999 0.8369699999999998
0.0208100000000001 0.9791900000000001 0.7186799999999999
0.0351150000000001 0.9648850000000000 0.6861200000000000
0.1290200000000000 0.8709800000000000 0.8269299999999997
0.1437550000000001 0.8562450000000000 0.7954099999999998
0.3902650000000000 0.7186300000000000 0.9739799999999998
0.1101650000000001 0.8273700000000000 0.8691999999999999
0.0208100000000000 0.5416200000000000 0.7186799999999999
0.0351150000000000 0.5702299999999999 0.6861200000000000
0.1290200000000001 0.7580400000000002 0.8269299999999997
0.1437550000000001 0.7875100000000000 0.7954099999999998
0.2813700000000000 0.6716350000000000 0.9739799999999998
0.1726300000000000 0.7827950000000001 0.8691999999999999
0.4583800000000001 0.9791900000000001 0.7186799999999999
0.4297699999999999 0.9648850000000000 0.6861200000000000
0.2419600000000000 0.8709800000000000 0.8269299999999997
0.2124900000000000 0.8562450000000000 0.7954099999999998
0.3283650000000000 0.6097350000000000 0.9739799999999998
0.2172050000000000 0.8898349999999999 0.8691999999999999
0.2813700000000000 0.6097350000000000 0.9739799999999998
0.1726300000000001 0.8898349999999999 0.8691999999999999
0.3902650000000000 0.6716350000000000 0.9739799999999998
0.1101650000000000 0.7827950000000001 0.8691999999999999
0.3283650000000001 0.7186300000000000 0.9739799999999998
0.2172050000000001 0.8273700000000000 0.8691999999999999
0.1097350000000000 0.7813700000000000 0.0260200000000000
0.3898350000000000 0.6726300000000001 0.1308000000000000
0.2186300000000000 0.8283649999999999 0.0260200000000000
0.3273700000000000 0.7172050000000000 0.1308000000000000
0.1716350000000000 0.8902650000000000 0.0260200000000000
0.2827950000000000 0.6101650000000000 0.1308000000000000
0.1666683333333333 0.8333316666666665 0.4963633333333332
0.3125233333333332 0.6874766666666666 0.6146533333333332
0.2982183333333333 0.7017816666666666 0.6472133333333332
0.2043133333333333 0.7956866666666664 0.5064033333333332
0.1895783333333332 0.8104216666666665 0.5379233333333332
0.0519633333333334 0.5569316666666667 0.3593533333333332
0.1607033333333333 0.7768316666666665 0.4641333333333332
0.3125233333333333 0.6250466666666665 0.6146533333333332
0.2982183333333333 0.5964366666666666 0.6472133333333332
0.2043133333333333 0.9086266666666665 0.5064033333333332
0.1895783333333333 0.8791566666666665 0.5379233333333332
0.4430683333333333 0.9950316666666666 0.3593533333333332
0.2231683333333334 0.8838716666666665 0.4641333333333332
0.0000033333333334 0.5000016666666668 0.3288733333333333
0.3749533333333332 0.6874766666666666 0.6146533333333332
0.4035633333333333 0.7017816666666666 0.6472133333333332
0.0913733333333333 0.7956866666666664 0.5064033333333332
0.1208433333333333 0.8104216666666666 0.5379233333333332
0.0049683333333332 0.9480366666666665 0.3593533333333332
0.1161283333333334 0.8392966666666666 0.4641333333333332
0.1666683333333333 0.8333316666666666 0.3377933333333333
0.3541433333333333 0.6458566666666666 0.0520133333333333
0.3684483333333333 0.6315516666666666 0.0194533333333333
0.4623533333333332 0.5376466666666666 0.1602633333333333
0.4770883333333333 0.5229116666666667 0.1287433333333333
0.2235983333333334 0.8852966666666666 0.3073133333333333
0.4434983333333333 0.9940366666666667 0.2025333333333333
0.3541433333333333 0.7082866666666665 0.0520133333333333
0.3684483333333333 0.7368966666666666 0.0194533333333333
0.4623533333333333 0.9247066666666666 0.1602633333333333
0.4770883333333332 0.9541766666666666 0.1287433333333333
0.1147033333333334 0.8383016666666665 0.3073133333333333
0.0059633333333334 0.9494616666666665 0.2025333333333333
0.0000033333333334 0.5000016666666667 0.1703033333333333
0.2917133333333332 0.6458566666666666 0.0520133333333333
0.2631033333333332 0.6315516666666666 0.0194533333333333
0.0752933333333333 0.5376466666666666 0.1602633333333333
0.0458233333333334 0.5229116666666667 0.1287433333333333
0.1616983333333333 0.7764016666666667 0.3073133333333333
0.0505383333333333 0.5565016666666667 0.2025333333333333
0.1147033333333334 0.7764016666666667 0.3073133333333333
0.0059633333333333 0.5565016666666667 0.2025333333333333
0.2235983333333333 0.8383016666666665 0.3073133333333333
0.4434983333333333 0.9494616666666665 0.2025333333333333
0.1616983333333334 0.8852966666666666 0.3073133333333333
0.0505383333333334 0.9940366666666667 0.2025333333333333
0.4430683333333333 0.9480366666666665 0.3593533333333332
0.2231683333333333 0.8392966666666666 0.4641333333333332
0.0519633333333334 0.9950316666666666 0.3593533333333332
0.1607033333333334 0.8838716666666665 0.4641333333333332
0.0049683333333333 0.5569316666666667 0.3593533333333332
0.1161283333333334 0.7768316666666665 0.4641333333333332
0.3333316666666666 0.6666683333333333 0.6622066666666665
0.1458566666666666 0.8541433333333333 0.9479866666666665
0.1315516666666667 0.8684483333333333 0.9805466666666666
0.0376466666666667 0.9623533333333333 0.8397366666666665
0.0229116666666668 0.9770883333333333 0.8712566666666665
0.3852966666666666 0.7235983333333332 0.6926866666666666
0.4940366666666667 0.9434983333333333 0.7974666666666664
0.1458566666666667 0.7917133333333333 0.9479866666666665
0.1315516666666667 0.7631033333333332 0.9805466666666666
0.0376466666666667 0.5752933333333333 0.8397366666666665
0.0229116666666667 0.5458233333333332 0.8712566666666665
0.2764016666666665 0.6616983333333332 0.6926866666666666
0.0565016666666667 0.5505383333333334 0.7974666666666664
0.4999966666666666 0.9999983333333334 0.8296966666666665
0.2082866666666666 0.8541433333333333 0.9479866666666665
0.2368966666666666 0.8684483333333333 0.9805466666666666
0.4247066666666667 0.9623533333333333 0.8397366666666665
0.4541766666666667 0.9770883333333333 0.8712566666666665
0.3383016666666666 0.6147033333333334 0.6926866666666666
0.4494616666666666 0.5059633333333333 0.7974666666666664
0.3333316666666667 0.6666683333333333 0.5036366666666665
0.1874766666666667 0.8125233333333332 0.3853466666666665
0.2017816666666667 0.7982183333333333 0.3527866666666665
0.2956866666666667 0.7043133333333332 0.4935966666666665
0.3104216666666667 0.6895783333333333 0.4620766666666665
0.0569316666666666 0.5519633333333333 0.6406466666666665
0.2768316666666666 0.6607033333333332 0.5358666666666665
0.1874766666666667 0.8749533333333332 0.3853466666666665
0.2017816666666666 0.9035633333333333 0.3527866666666665
0.2956866666666667 0.5913733333333332 0.4935966666666665
0.3104216666666667 0.6208433333333333 0.4620766666666665
0.4480366666666666 0.5049683333333331 0.6406466666666665
0.3392966666666667 0.6161283333333334 0.5358666666666665
0.4999966666666666 0.9999983333333334 0.6711266666666665
0.1250466666666667 0.8125233333333332 0.3853466666666665
0.0964366666666667 0.7982183333333333 0.3527866666666665
0.4086266666666666 0.7043133333333332 0.4935966666666665
0.3791566666666667 0.6895783333333333 0.4620766666666665
0.4950316666666666 0.9430683333333335 0.6406466666666665
0.3838716666666666 0.7231683333333332 0.5358666666666665
0.4480366666666666 0.9430683333333335 0.6406466666666665
0.3392966666666667 0.7231683333333332 0.5358666666666665
0.0569316666666666 0.5049683333333331 0.6406466666666665
0.2768316666666666 0.6161283333333334 0.5358666666666665
0.4950316666666666 0.5519633333333333 0.6406466666666665
0.3838716666666666 0.6607033333333332 0.5358666666666665
0.2764016666666666 0.6147033333333334 0.6926866666666666
0.0565016666666667 0.5059633333333333 0.7974666666666664
0.3852966666666665 0.6616983333333332 0.6926866666666666
0.4940366666666666 0.5505383333333334 0.7974666666666664
0.3383016666666666 0.7235983333333332 0.6926866666666666
0.4494616666666666 0.9434983333333333 0.7974666666666664
0.6666650000000000 0.3333349999999999 0.9955399999999998
0.8333349999999998 0.1666650000000000 0.1630300000000000
0.9791899999999998 0.0208100000000000 0.2813200000000000
0.9648849999999999 0.0351150000000000 0.3138799999999999
0.8709799999999998 0.1290200000000000 0.1730699999999999
0.8562449999999998 0.1437550000000000 0.2045899999999999
0.7186299999999999 0.3902650000000000 0.0260200000000000
0.8273699999999998 0.1101650000000000 0.1308000000000000
0.9791899999999998 0.4583799999999999 0.2813200000000000
0.9648849999999999 0.4297700000000000 0.3138799999999999
0.8709799999999999 0.2419600000000000 0.1730699999999999
0.8562449999999999 0.2124900000000000 0.2045899999999999
0.6097349999999999 0.3283650000000000 0.0260200000000000
0.8898349999999998 0.2172050000000000 0.1308000000000000
0.5416199999999999 0.0208100000000000 0.2813200000000000
0.5702299999999999 0.0351150000000000 0.3138799999999999
0.7580399999999999 0.1290200000000000 0.1730699999999999
0.7875099999999999 0.1437550000000000 0.2045899999999999
0.6716349999999999 0.2813700000000000 0.0260200000000000
0.7827949999999999 0.1726300000000000 0.1308000000000000
0.8333349999999998 0.1666650000000000 0.0044600000000000
0.6666650000000000 0.3333350000000000 0.8369699999999998
0.5208099999999999 0.4791899999999999 0.7186799999999999
0.5351149999999999 0.4648849999999999 0.6861200000000000
0.6290200000000000 0.3709800000000000 0.8269299999999997
0.6437549999999999 0.3562450000000000 0.7954099999999998
0.8902649999999998 0.2186300000000000 0.9739799999999998
0.6101649999999998 0.3273700000000000 0.8691999999999999
0.5208099999999999 0.0416200000000000 0.7186799999999999
0.5351149999999999 0.0702300000000000 0.6861200000000000
0.6290199999999999 0.2580400000000000 0.8269299999999997
0.6437550000000000 0.2875100000000000 0.7954099999999998
0.7813699999999999 0.1716350000000000 0.9739799999999998
0.6726300000000000 0.2827950000000000 0.8691999999999999
0.9583799999999997 0.4791899999999999 0.7186799999999999
0.9297699999999999 0.4648849999999999 0.6861200000000000
0.7419599999999998 0.3709800000000000 0.8269299999999997
0.7124899999999998 0.3562450000000000 0.7954099999999998
0.8283649999999998 0.1097350000000000 0.9739799999999998
0.7172049999999999 0.3898350000000000 0.8691999999999999
0.7813699999999998 0.1097350000000000 0.9739799999999998
0.6726300000000000 0.3898350000000000 0.8691999999999999
0.8902649999999999 0.1716350000000000 0.9739799999999998
0.6101649999999998 0.2827950000000000 0.8691999999999999
0.8283649999999998 0.2186300000000000 0.9739799999999998
0.7172049999999999 0.3273700000000000 0.8691999999999999
0.6097349999999999 0.2813700000000000 0.0260200000000000
0.8898349999999998 0.1726300000000000 0.1308000000000000
0.7186299999999999 0.3283650000000000 0.0260200000000000
0.8273699999999998 0.2172050000000000 0.1308000000000000
0.6716349999999999 0.3902650000000000 0.0260200000000000
0.7827949999999999 0.1101650000000000 0.1308000000000000
0.6666683333333331 0.3333316666666667 0.4963633333333332
0.8125233333333332 0.1874766666666667 0.6146533333333332
0.7982183333333331 0.2017816666666666 0.6472133333333332
0.7043133333333331 0.2956866666666667 0.5064033333333332
0.6895783333333332 0.3104216666666667 0.5379233333333332
0.5519633333333334 0.0569316666666666 0.3593533333333332
0.6607033333333331 0.2768316666666666 0.4641333333333332
0.8125233333333330 0.1250466666666666 0.6146533333333332
0.7982183333333330 0.0964366666666666 0.6472133333333332
0.7043133333333331 0.4086266666666666 0.5064033333333332
0.6895783333333332 0.3791566666666666 0.5379233333333332
0.9430683333333334 0.4950316666666666 0.3593533333333332
0.7231683333333331 0.3838716666666666 0.4641333333333332
0.8749533333333330 0.1874766666666666 0.6146533333333332
0.9035633333333331 0.2017816666666666 0.6472133333333332
0.5913733333333332 0.2956866666666667 0.5064033333333332
0.6208433333333333 0.3104216666666667 0.5379233333333332
0.5049683333333332 0.4480366666666667 0.3593533333333332
0.6161283333333333 0.3392966666666667 0.4641333333333332
0.6666683333333332 0.3333316666666667 0.3377933333333333
0.8541433333333331 0.1458566666666666 0.0520133333333333
0.8684483333333332 0.1315516666666666 0.0194533333333333
0.9623533333333331 0.0376466666666666 0.1602633333333333
0.9770883333333331 0.0229116666666667 0.1287433333333333
0.7235983333333333 0.3852966666666666 0.3073133333333333
0.9434983333333332 0.4940366666666666 0.2025333333333333
0.8541433333333330 0.2082866666666666 0.0520133333333333
0.8684483333333330 0.2368966666666666 0.0194533333333333
0.9623533333333332 0.4247066666666666 0.1602633333333333
0.9770883333333332 0.4541766666666667 0.1287433333333333
0.6147033333333334 0.3383016666666666 0.3073133333333333
0.5059633333333332 0.4494616666666665 0.2025333333333333
0.7917133333333332 0.1458566666666667 0.0520133333333333
0.7631033333333331 0.1315516666666667 0.0194533333333333
0.5752933333333332 0.0376466666666667 0.1602633333333333
0.5458233333333332 0.0229116666666667 0.1287433333333333
0.6616983333333333 0.2764016666666666 0.3073133333333333
0.5505383333333332 0.0565016666666667 0.2025333333333333
0.6147033333333334 0.2764016666666666 0.3073133333333333
0.5059633333333332 0.0565016666666667 0.2025333333333333
0.7235983333333332 0.3383016666666666 0.3073133333333333
0.9434983333333331 0.4494616666666665 0.2025333333333333
0.6616983333333332 0.3852966666666666 0.3073133333333333
0.5505383333333332 0.4940366666666666 0.2025333333333333
0.9430683333333333 0.4480366666666667 0.3593533333333332
0.7231683333333332 0.3392966666666667 0.4641333333333332
0.5519633333333334 0.4950316666666666 0.3593533333333332
0.6607033333333331 0.3838716666666666 0.4641333333333332
0.5049683333333332 0.0569316666666666 0.3593533333333332
0.6161283333333332 0.2768316666666666 0.4641333333333332
0.8333316666666665 0.1666683333333333 0.6622066666666665
0.6458566666666665 0.3541433333333333 0.9479866666666665
0.6315516666666665 0.3684483333333333 0.9805466666666666
0.5376466666666665 0.4623533333333332 0.8397366666666665
0.5229116666666666 0.4770883333333333 0.8712566666666665
0.8852966666666664 0.2235983333333333 0.6926866666666666
0.9940366666666663 0.4434983333333333 0.7974666666666664
0.6458566666666665 0.2917133333333333 0.9479866666666665
0.6315516666666665 0.2631033333333332 0.9805466666666666
0.5376466666666665 0.0752933333333333 0.8397366666666665
0.5229116666666666 0.0458233333333333 0.8712566666666665
0.7764016666666665 0.1616983333333333 0.6926866666666666
0.5565016666666666 0.0505383333333334 0.7974666666666664
0.7082866666666665 0.3541433333333333 0.9479866666666665
0.7368966666666666 0.3684483333333333 0.9805466666666666
0.9247066666666665 0.4623533333333333 0.8397366666666665
0.9541766666666665 0.4770883333333333 0.8712566666666665
0.8383016666666664 0.1147033333333333 0.6926866666666666
0.9494616666666664 0.0059633333333333 0.7974666666666664
0.8333316666666664 0.1666683333333333 0.5036366666666665
0.6874766666666665 0.3125233333333332 0.3853466666666665
0.7017816666666665 0.2982183333333333 0.3527866666666665
0.7956866666666664 0.2043133333333334 0.4935966666666665
0.8104216666666665 0.1895783333333333 0.4620766666666665
0.5569316666666665 0.0519633333333334 0.6406466666666665
0.7768316666666664 0.1607033333333333 0.5358666666666665
0.6874766666666665 0.3749533333333333 0.3853466666666665
0.7017816666666665 0.4035633333333333 0.3527866666666665
0.7956866666666663 0.0913733333333333 0.4935966666666665
0.8104216666666665 0.1208433333333333 0.4620766666666665
0.9480366666666664 0.0049683333333332 0.6406466666666665
0.8392966666666665 0.1161283333333333 0.5358666666666665
0.6250466666666665 0.3125233333333333 0.3853466666666665
0.5964366666666665 0.2982183333333333 0.3527866666666665
0.9086266666666665 0.2043133333333333 0.4935966666666665
0.8791566666666664 0.1895783333333333 0.4620766666666665
0.9950316666666664 0.4430683333333333 0.6406466666666665
0.8838716666666664 0.2231683333333333 0.5358666666666665
0.9480366666666664 0.4430683333333333 0.6406466666666665
0.8392966666666664 0.2231683333333333 0.5358666666666665
0.5569316666666665 0.0049683333333332 0.6406466666666665
0.7768316666666665 0.1161283333333333 0.5358666666666665
0.9950316666666664 0.0519633333333334 0.6406466666666665
0.8838716666666664 0.1607033333333333 0.5358666666666665
0.7764016666666664 0.1147033333333333 0.6926866666666666
0.5565016666666666 0.0059633333333333 0.7974666666666664
0.8852966666666664 0.1616983333333333 0.6926866666666666
0.9940366666666665 0.0505383333333334 0.7974666666666664
0.8383016666666664 0.2235983333333333 0.6926866666666666
0.9494616666666664 0.4434983333333333 0.7974666666666664
0.6666650000000000 0.8333349999999999 0.9955399999999998
0.8333349999999999 0.6666650000000001 0.1630300000000000
0.9791899999999998 0.5208100000000000 0.2813200000000000
0.9648849999999998 0.5351150000000001 0.3138799999999999
0.8709799999999999 0.6290200000000000 0.1730699999999999
0.8562449999999998 0.6437550000000000 0.2045899999999999
0.7186299999999999 0.8902650000000000 0.0260200000000000
0.8273699999999998 0.6101650000000000 0.1308000000000000
0.9791899999999999 0.9583799999999999 0.2813200000000000
0.9648849999999999 0.9297700000000000 0.3138799999999999
0.8709799999999999 0.7419600000000000 0.1730699999999999
0.8562449999999999 0.7124900000000000 0.2045899999999999
0.6097349999999999 0.8283649999999999 0.0260200000000000
0.8898349999999998 0.7172050000000000 0.1308000000000000
0.5416200000000000 0.5208100000000000 0.2813200000000000
0.5702300000000000 0.5351150000000001 0.3138799999999999
0.7580399999999999 0.6290200000000000 0.1730699999999999
0.7875099999999999 0.6437550000000001 0.2045899999999999
0.6716349999999999 0.7813700000000000 0.0260200000000000
0.7827949999999999 0.6726300000000001 0.1308000000000000
0.8333349999999999 0.6666650000000001 0.0044600000000000
0.6666650000000000 0.8333349999999999 0.8369699999999998
0.5208100000000000 0.9791900000000001 0.7186799999999999
0.5351149999999999 0.9648850000000000 0.6861200000000000
0.6290199999999999 0.8709800000000000 0.8269299999999997
0.6437550000000000 0.8562450000000000 0.7954099999999998
0.8902650000000000 0.7186300000000000 0.9739799999999998
0.6101650000000000 0.8273700000000000 0.8691999999999999
0.5208099999999999 0.5416200000000000 0.7186799999999999
0.5351149999999999 0.5702299999999999 0.6861200000000000
0.6290200000000000 0.7580400000000002 0.8269299999999997
0.6437550000000001 0.7875100000000000 0.7954099999999998
0.7813699999999999 0.6716350000000000 0.9739799999999998
0.6726300000000001 0.7827950000000001 0.8691999999999999
0.9583800000000000 0.9791900000000001 0.7186799999999999
0.9297699999999999 0.9648850000000000 0.6861200000000000
0.7419599999999998 0.8709800000000000 0.8269299999999997
0.7124899999999998 0.8562450000000000 0.7954099999999998
0.8283649999999999 0.6097350000000000 0.9739799999999998
0.7172050000000000 0.8898349999999999 0.8691999999999999
0.7813699999999999 0.6097350000000000 0.9739799999999998
0.6726300000000001 0.8898349999999999 0.8691999999999999
0.8902649999999999 0.6716350000000000 0.9739799999999998
0.6101650000000000 0.7827950000000001 0.8691999999999999
0.8283650000000000 0.7186300000000000 0.9739799999999998
0.7172050000000000 0.8273700000000000 0.8691999999999999
0.6097349999999999 0.7813700000000000 0.0260200000000000
0.8898349999999998 0.6726300000000001 0.1308000000000000
0.7186299999999999 0.8283649999999999 0.0260200000000000
0.8273699999999998 0.7172050000000000 0.1308000000000000
0.6716349999999999 0.8902650000000000 0.0260200000000000
0.7827949999999999 0.6101650000000000 0.1308000000000000
0.6666683333333332 0.8333316666666665 0.4963633333333332
0.8125233333333332 0.6874766666666666 0.6146533333333332
0.7982183333333333 0.7017816666666666 0.6472133333333332
0.7043133333333331 0.7956866666666664 0.5064033333333332
0.6895783333333331 0.8104216666666665 0.5379233333333332
0.5519633333333334 0.5569316666666667 0.3593533333333332
0.6607033333333332 0.7768316666666665 0.4641333333333332
0.8125233333333332 0.6250466666666665 0.6146533333333332
0.7982183333333331 0.5964366666666666 0.6472133333333332
0.7043133333333331 0.9086266666666665 0.5064033333333332
0.6895783333333332 0.8791566666666665 0.5379233333333332
0.9430683333333333 0.9950316666666666 0.3593533333333332
0.7231683333333332 0.8838716666666665 0.4641333333333332
0.8749533333333331 0.6874766666666666 0.6146533333333332
0.9035633333333332 0.7017816666666666 0.6472133333333332
0.5913733333333331 0.7956866666666664 0.5064033333333332
0.6208433333333332 0.8104216666666666 0.5379233333333332
0.5049683333333332 0.9480366666666665 0.3593533333333332
0.6161283333333333 0.8392966666666666 0.4641333333333332
0.6666683333333333 0.8333316666666666 0.3377933333333333
0.8541433333333331 0.6458566666666666 0.0520133333333333
0.8684483333333332 0.6315516666666666 0.0194533333333333
0.9623533333333331 0.5376466666666666 0.1602633333333333
0.9770883333333332 0.5229116666666667 0.1287433333333333
0.7235983333333333 0.8852966666666666 0.3073133333333333
0.9434983333333332 0.9940366666666667 0.2025333333333333
0.8541433333333330 0.7082866666666665 0.0520133333333333
0.8684483333333332 0.7368966666666666 0.0194533333333333
0.9623533333333333 0.9247066666666666 0.1602633333333333
0.9770883333333331 0.9541766666666666 0.1287433333333333
0.6147033333333334 0.8383016666666665 0.3073133333333333
0.5059633333333333 0.9494616666666665 0.2025333333333333
0.7917133333333332 0.6458566666666666 0.0520133333333333
0.7631033333333331 0.6315516666666666 0.0194533333333333
0.5752933333333332 0.5376466666666666 0.1602633333333333
0.5458233333333333 0.5229116666666667 0.1287433333333333
0.6616983333333333 0.7764016666666667 0.3073133333333333
0.5505383333333332 0.5565016666666667 0.2025333333333333
0.6147033333333334 0.7764016666666667 0.3073133333333333
0.5059633333333332 0.5565016666666667 0.2025333333333333
0.7235983333333333 0.8383016666666665 0.3073133333333333
0.9434983333333332 0.9494616666666665 0.2025333333333333
0.6616983333333333 0.8852966666666666 0.3073133333333333
0.5505383333333334 0.9940366666666667 0.2025333333333333
0.9430683333333333 0.9480366666666665 0.3593533333333332
0.7231683333333332 0.8392966666666666 0.4641333333333332
0.5519633333333334 0.9950316666666666 0.3593533333333332
0.6607033333333332 0.8838716666666665 0.4641333333333332
0.5049683333333332 0.5569316666666667 0.3593533333333332
0.6161283333333333 0.7768316666666665 0.4641333333333332
0.8333316666666666 0.6666683333333333 0.6622066666666665
0.6458566666666665 0.8541433333333333 0.9479866666666665
0.6315516666666666 0.8684483333333333 0.9805466666666666
0.5376466666666666 0.9623533333333333 0.8397366666666665
0.5229116666666667 0.9770883333333333 0.8712566666666665
0.8852966666666666 0.7235983333333332 0.6926866666666666
0.9940366666666666 0.9434983333333333 0.7974666666666664
0.6458566666666666 0.7917133333333333 0.9479866666666665
0.6315516666666666 0.7631033333333332 0.9805466666666666
0.5376466666666666 0.5752933333333333 0.8397366666666665
0.5229116666666666 0.5458233333333332 0.8712566666666665
0.7764016666666664 0.6616983333333332 0.6926866666666666
0.5565016666666666 0.5505383333333334 0.7974666666666664
0.7082866666666665 0.8541433333333333 0.9479866666666665
0.7368966666666666 0.8684483333333333 0.9805466666666666
0.9247066666666667 0.9623533333333333 0.8397366666666665
0.9541766666666666 0.9770883333333333 0.8712566666666665
0.8383016666666665 0.6147033333333334 0.6926866666666666
0.9494616666666664 0.5059633333333333 0.7974666666666664
0.8333316666666666 0.6666683333333333 0.5036366666666665
0.6874766666666666 0.8125233333333332 0.3853466666666665
0.7017816666666666 0.7982183333333333 0.3527866666666665
0.7956866666666664 0.7043133333333332 0.4935966666666665
0.8104216666666665 0.6895783333333333 0.4620766666666665
0.5569316666666665 0.5519633333333333 0.6406466666666665
0.7768316666666665 0.6607033333333332 0.5358666666666665
0.6874766666666666 0.8749533333333332 0.3853466666666665
0.7017816666666666 0.9035633333333333 0.3527866666666665
0.7956866666666664 0.5913733333333332 0.4935966666666665
0.8104216666666665 0.6208433333333333 0.4620766666666665
0.9480366666666664 0.5049683333333331 0.6406466666666665
0.8392966666666666 0.6161283333333334 0.5358666666666665
0.6250466666666666 0.8125233333333332 0.3853466666666665
0.5964366666666666 0.7982183333333333 0.3527866666666665
0.9086266666666665 0.7043133333333332 0.4935966666666665
0.8791566666666665 0.6895783333333333 0.4620766666666665
0.9950316666666666 0.9430683333333335 0.6406466666666665
0.8838716666666665 0.7231683333333332 0.5358666666666665
0.9480366666666665 0.9430683333333335 0.6406466666666665
0.8392966666666666 0.7231683333333332 0.5358666666666665
0.5569316666666665 0.5049683333333331 0.6406466666666665
0.7768316666666665 0.6161283333333334 0.5358666666666665
0.9950316666666664 0.5519633333333333 0.6406466666666665
0.8838716666666665 0.6607033333333332 0.5358666666666665
0.7764016666666665 0.6147033333333334 0.6926866666666666
0.5565016666666666 0.5059633333333333 0.7974666666666664
0.8852966666666665 0.6616983333333332 0.6926866666666666
0.9940366666666666 0.5505383333333334 0.7974666666666664
0.8383016666666665 0.7235983333333332 0.6926866666666666
0.9494616666666665 0.9434983333333333 0.7974666666666664
0.4530449999999999 0.0469550000000000 0.2527400000000000
0.4522349999999999 0.0477650000000000 0.2763300000000000
0.4377599999999999 0.0622400000000000 0.2871199999999999
0.4092099999999999 0.0907900000000000 0.2849599999999999
0.3965849999999999 0.1034200000000000 0.2720899999999999
0.3830049999999999 0.1169950000000000 0.2336600000000000
0.3829949999999999 0.1170050000000000 0.2087300000000000
0.3978199999999999 0.1021800000000000 0.1985399999999999
0.4273849999999999 0.0726150000000000 0.2000000000000000
0.4400949999999998 0.0599050000000000 0.2130700000000000
0.4395849999999998 0.0604150000000000 0.2388900000000000
0.4249649999999999 0.0750350000000000 0.2502199999999999
0.4248499999999999 0.0751500000000000 0.2737100000000000
0.3965449999999999 0.1034550000000000 0.2472399999999999
0.4107649999999999 0.0892350000000000 0.2356600000000000
0.4115649999999999 0.0884350000000000 0.2117800000000000
0.4663249999999999 0.0336750000000000 0.2916000000000000
0.3688799999999999 0.1311200000000000 0.1943599999999999
0.2142900000000000 0.4285800000000000 0.0463000000000000
0.2415450000000000 0.4830900000000000 0.0711400000000000
0.2571049999999999 0.0142100000000000 0.0848300000000000
0.2840449999999999 0.0680900000000000 0.1103200000000000
0.1989600000000000 0.3979200000000000 0.0323100000000000
0.2991600000000000 0.0983200000000000 0.1243500000000000
0.2454650000000000 0.4423949999999999 0.0521200000000000
0.2597050000000000 0.4699349999999999 0.0645400000000000
0.2883649999999999 0.0272300000000000 0.0907200000000000
0.3013950000000000 0.0545250000000000 0.1031700000000000
0.2918100000000000 0.4847199999999999 0.0714800000000000
0.3059200000000000 0.0130850000000000 0.0825500000000000
0.4530449999999999 0.4060899999999998 0.2527400000000000
0.4522349999999999 0.4044699999999999 0.2763300000000000
0.4377599999999999 0.3755199999999999 0.2871199999999999
0.4092100000000000 0.3184200000000000 0.2849599999999999
0.3965799999999999 0.2931650000000000 0.2720899999999999
0.3830049999999999 0.2660099999999999 0.2336600000000000
0.3829949999999999 0.2659899999999999 0.2087300000000000
0.3978199999999999 0.2956400000000000 0.1985399999999999
0.4273849999999999 0.3547700000000000 0.2000000000000000
0.4400949999999999 0.3801900000000000 0.2130700000000000
0.4395849999999999 0.3791700000000000 0.2388900000000000
0.4249649999999999 0.3499300000000000 0.2502199999999999
0.4248500000000000 0.3497000000000000 0.2737100000000000
0.3965449999999999 0.2930899999999999 0.2472399999999999
0.4107649999999999 0.3215300000000000 0.2356600000000000
0.4115649999999999 0.3231300000000000 0.2117800000000000
0.4663249999999999 0.4326499999999999 0.2916000000000000
0.3688800000000000 0.2377600000000000 0.1943599999999999
0.0714200000000000 0.2857100000000000 0.0463000000000000
0.0169100000000000 0.2584550000000000 0.0711400000000000
0.4857899999999999 0.2428949999999999 0.0848300000000000
0.4319100000000000 0.2159550000000000 0.1103200000000000
0.1020800000000000 0.3010400000000000 0.0323100000000000
0.4016799999999999 0.2008399999999999 0.1243500000000000
0.0576050000000000 0.3030700000000000 0.0521200000000000
0.0300650000000000 0.2897700000000000 0.0645400000000000
0.4727699999999999 0.2611350000000000 0.0907200000000000
0.4454750000000000 0.2468700000000000 0.1031700000000000
0.0152800000000000 0.3070900000000000 0.0714800000000000
0.4869149999999999 0.2928350000000000 0.0825500000000000
0.0939100000000000 0.0469550000000000 0.2527400000000000
0.0955300000000000 0.0477650000000000 0.2763300000000000
0.1244800000000000 0.0622400000000000 0.2871199999999999
0.1815799999999999 0.0907900000000000 0.2849599999999999
0.2068350000000000 0.1034150000000000 0.2720899999999999
0.2339900000000000 0.1169950000000000 0.2336600000000000
0.2340100000000000 0.1170050000000000 0.2087300000000000
0.2043600000000000 0.1021800000000000 0.1985399999999999
0.1452300000000000 0.0726150000000000 0.2000000000000000
0.1198100000000000 0.0599050000000000 0.2130700000000000
0.1208300000000000 0.0604150000000000 0.2388900000000000
0.1500700000000000 0.0750350000000000 0.2502199999999999
0.1503000000000000 0.0751500000000000 0.2737100000000000
0.2069100000000000 0.1034550000000000 0.2472399999999999
0.1784700000000000 0.0892350000000000 0.2356600000000000
0.1768699999999999 0.0884350000000000 0.2117800000000000
0.0673500000000000 0.0336750000000000 0.2916000000000000
0.2622400000000000 0.1311200000000000 0.1943599999999999
0.2142900000000000 0.2857100000000000 0.0463000000000000
0.2415450000000000 0.2584550000000000 0.0711400000000000
0.2571050000000000 0.2428950000000000 0.0848300000000000
0.2840449999999999 0.2159550000000000 0.1103200000000000
0.1989600000000000 0.3010400000000000 0.0323100000000000
0.2991600000000000 0.2008400000000000 0.1243500000000000
0.1969300000000000 0.2545350000000000 0.0521200000000000
0.2102300000000000 0.2402950000000000 0.0645400000000000
0.2388650000000000 0.2116350000000000 0.0907200000000000
0.2531299999999999 0.1986049999999999 0.1031700000000000
0.1929099999999999 0.2081900000000000 0.0714800000000000
0.2071650000000000 0.1940799999999999 0.0825500000000000
0.0469550000000000 0.4530449999999999 0.7472599999999998
0.0477650000000000 0.4522349999999999 0.7236699999999999
0.0622400000000000 0.4377599999999999 0.7128799999999997
0.0907900000000000 0.4092100000000000 0.7150399999999999
0.1034200000000000 0.3965850000000000 0.7279099999999998
0.1169950000000000 0.3830049999999999 0.7663399999999999
0.1170049999999999 0.3829949999999999 0.7912699999999998
0.1021800000000000 0.3978200000000000 0.8014600000000000
0.0726150000000000 0.4273850000000000 0.7999999999999998
0.0599050000000000 0.4400950000000000 0.7869299999999998
0.0604150000000000 0.4395849999999999 0.7611099999999998
0.0750350000000000 0.4249649999999999 0.7497799999999999
0.0751500000000000 0.4248499999999999 0.7262899999999999
0.1034550000000000 0.3965450000000000 0.7527599999999999
0.0892350000000000 0.4107649999999999 0.7643399999999999
0.0884350000000000 0.4115650000000000 0.7882199999999999
0.0336750000000000 0.4663249999999999 0.7083999999999997
0.1311200000000000 0.3688800000000000 0.8056399999999999
0.4285800000000000 0.2142900000000000 0.9536999999999998
0.4830900000000000 0.2415450000000000 0.9288599999999999
0.0142100000000000 0.2571050000000000 0.9151699999999999
0.0680900000000000 0.2840450000000000 0.8896799999999999
0.3979200000000000 0.1989600000000000 0.9676899999999998
0.0983200000000000 0.2991600000000000 0.8756499999999998
0.4423949999999999 0.2454650000000000 0.9478799999999998
0.4699349999999999 0.2597050000000000 0.9354599999999997
0.0272300000000000 0.2883650000000000 0.9092799999999999
0.0545250000000000 0.3013950000000000 0.8968299999999999
0.4847199999999999 0.2918100000000000 0.9285199999999999
0.0130850000000000 0.3059200000000000 0.9174499999999999
0.0469550000000000 0.0939100000000000 0.7472599999999998
0.0477650000000000 0.0955300000000000 0.7236699999999999
0.0622400000000000 0.1244800000000000 0.7128799999999997
0.0907900000000000 0.1815800000000000 0.7150399999999999
0.1034150000000000 0.2068349999999999 0.7279099999999998
0.1169950000000000 0.2339900000000001 0.7663399999999999
0.1170050000000000 0.2340100000000000 0.7912699999999998
0.1021800000000000 0.2043600000000000 0.8014600000000000
0.0726150000000000 0.1452299999999999 0.7999999999999998
0.0599050000000000 0.1198100000000000 0.7869299999999998
0.0604150000000000 0.1208300000000000 0.7611099999999998
0.0750350000000000 0.1500700000000000 0.7497799999999999
0.0751500000000000 0.1503000000000000 0.7262899999999999
0.1034550000000000 0.2069100000000000 0.7527599999999999
0.0892350000000000 0.1784700000000000 0.7643399999999999
0.0884350000000000 0.1768699999999999 0.7882199999999999
0.0336750000000000 0.0673500000000000 0.7083999999999997
0.1311200000000000 0.2622400000000000 0.8056399999999999
0.2857100000000000 0.2142900000000000 0.9536999999999998
0.2584550000000000 0.2415450000000000 0.9288599999999999
0.2428950000000000 0.2571050000000000 0.9151699999999999
0.2159550000000000 0.2840450000000000 0.8896799999999999
0.3010400000000000 0.1989600000000000 0.9676899999999998
0.2008400000000000 0.2991600000000000 0.8756499999999998
0.2545350000000000 0.1969300000000000 0.9478799999999998
0.2402949999999999 0.2102299999999999 0.9354599999999997
0.2116350000000000 0.2388650000000000 0.9092799999999999
0.1986049999999999 0.2531300000000000 0.8968299999999999
0.2081900000000000 0.1929100000000000 0.9285199999999999
0.1940799999999999 0.2071649999999999 0.9174499999999999
0.4060899999999999 0.4530450000000000 0.7472599999999998
0.4044699999999999 0.4522349999999999 0.7236699999999999
0.3755199999999999 0.4377599999999999 0.7128799999999997
0.3184200000000000 0.4092100000000000 0.7150399999999999
0.2931650000000000 0.3965799999999999 0.7279099999999998
0.2660099999999999 0.3830049999999999 0.7663399999999999
0.2659899999999998 0.3829949999999999 0.7912699999999998
0.2956400000000000 0.3978200000000000 0.8014600000000000
0.3547700000000000 0.4273850000000000 0.7999999999999998
0.3801900000000000 0.4400950000000000 0.7869299999999998
0.3791700000000000 0.4395849999999999 0.7611099999999998
0.3499299999999999 0.4249649999999999 0.7497799999999999
0.3497000000000000 0.4248499999999999 0.7262899999999999
0.2930900000000000 0.3965450000000000 0.7527599999999999
0.3215299999999999 0.4107649999999999 0.7643399999999999
0.3231300000000000 0.4115650000000000 0.7882199999999999
0.4326499999999999 0.4663249999999999 0.7083999999999997
0.2377600000000000 0.3688800000000000 0.8056399999999999
0.2857100000000000 0.0714200000000000 0.9536999999999998
0.2584550000000000 0.0169100000000000 0.9288599999999999
0.2428950000000000 0.4857900000000001 0.9151699999999999
0.2159550000000000 0.4319100000000001 0.8896799999999999
0.3010400000000000 0.1020800000000000 0.9676899999999998
0.2008399999999999 0.4016799999999999 0.8756499999999998
0.3030700000000000 0.0576050000000000 0.9478799999999998
0.2897700000000000 0.0300650000000000 0.9354599999999997
0.2611350000000000 0.4727700000000001 0.9092799999999999
0.2468700000000000 0.4454750000000000 0.8968299999999999
0.3070900000000000 0.0152800000000000 0.9285199999999999
0.2928350000000000 0.4869150000000000 0.9174499999999999
0.2545350000000000 0.0576050000000000 0.9478799999999998
0.2402949999999999 0.0300650000000000 0.9354599999999997
0.2116350000000000 0.4727700000000001 0.9092799999999999
0.1986050000000000 0.4454750000000000 0.8968299999999999
0.2081900000000000 0.0152800000000000 0.9285199999999999
0.1940799999999999 0.4869150000000000 0.9174499999999999
0.4423949999999999 0.1969300000000000 0.9478799999999998
0.4699349999999999 0.2102299999999999 0.9354599999999997
0.0272300000000000 0.2388650000000000 0.9092799999999999
0.0545250000000000 0.2531300000000000 0.8968299999999999
0.4847199999999999 0.1929100000000000 0.9285199999999999
0.0130850000000000 0.2071649999999999 0.9174499999999999
0.3030700000000000 0.2454650000000000 0.9478799999999998
0.2897700000000000 0.2597050000000000 0.9354599999999997
0.2611350000000000 0.2883650000000000 0.9092799999999999
0.2468700000000000 0.3013950000000000 0.8968299999999999
0.3070900000000000 0.2918100000000000 0.9285199999999999
0.2928350000000000 0.3059200000000000 0.9174499999999999
0.0576050000000000 0.2545350000000000 0.0521200000000000
0.0300650000000000 0.2402950000000000 0.0645400000000000
0.4727700000000000 0.2116350000000000 0.0907200000000000
0.4454750000000000 0.1986049999999999 0.1031700000000000
0.0152800000000000 0.2081900000000000 0.0714800000000000
0.4869149999999999 0.1940799999999999 0.0825500000000000
0.2454650000000000 0.3030700000000000 0.0521200000000000
0.2597050000000000 0.2897700000000000 0.0645400000000000
0.2883649999999999 0.2611350000000000 0.0907200000000000
0.3013950000000000 0.2468700000000000 0.1031700000000000
0.2918100000000000 0.3070900000000000 0.0714800000000000
0.3059200000000000 0.2928350000000000 0.0825500000000000
0.1969300000000000 0.4423949999999999 0.0521200000000000
0.2102299999999999 0.4699349999999999 0.0645400000000000
0.2388650000000000 0.0272300000000000 0.0907200000000000
0.2531299999999999 0.0545250000000000 0.1031700000000000
0.1929099999999999 0.4847199999999999 0.0714800000000000
0.2071650000000000 0.0130850000000000 0.0825500000000000
0.2863783333333333 0.2136216666666667 0.5860733333333333
0.2855683333333332 0.2144316666666667 0.6096633333333332
0.2710933333333332 0.2289066666666666 0.6204533333333332
0.2425433333333333 0.2574566666666666 0.6182933333333333
0.2299183333333333 0.2700866666666666 0.6054233333333332
0.2163383333333333 0.2836616666666667 0.5669933333333332
0.2163283333333332 0.2836716666666667 0.5420633333333332
0.2311533333333333 0.2688466666666667 0.5318733333333332
0.2607183333333334 0.2392816666666667 0.5333333333333332
0.2734283333333334 0.2265716666666667 0.5464033333333332
0.2729183333333334 0.2270816666666667 0.5722233333333332
0.2582983333333333 0.2417016666666666 0.5835533333333333
0.2581833333333333 0.2418166666666667 0.6070433333333333
0.2298783333333333 0.2701216666666666 0.5805733333333332
0.2440983333333333 0.2559016666666666 0.5689933333333332
0.2448983333333333 0.2551016666666667 0.5451133333333332
0.2996583333333333 0.2003416666666666 0.6249333333333332
0.2022133333333333 0.2977866666666666 0.5276933333333332
0.0476233333333334 0.0952466666666667 0.3796333333333333
0.0748783333333334 0.1497566666666666 0.4044733333333332
0.0904383333333333 0.1808766666666667 0.4181633333333333
0.1173783333333334 0.2347566666666667 0.4436533333333333
0.0322933333333333 0.0645866666666667 0.3656433333333333
0.1324933333333334 0.2649866666666666 0.4576833333333333
0.0787983333333333 0.1090616666666666 0.3854533333333333
0.0930383333333333 0.1366016666666666 0.3978733333333332
0.1216983333333332 0.1938966666666666 0.4240533333333332
0.1347283333333333 0.2211916666666666 0.4365033333333332
0.1251433333333334 0.1513866666666667 0.4048133333333332
0.1392533333333333 0.1797516666666666 0.4158833333333333
0.2863783333333332 0.0727566666666666 0.5860733333333333
0.2855683333333332 0.0711366666666666 0.6096633333333332
0.2710933333333332 0.0421866666666666 0.6204533333333332
0.2425433333333333 0.4850866666666666 0.6182933333333333
0.2299133333333333 0.4598316666666666 0.6054233333333332
0.2163383333333333 0.4326766666666666 0.5669933333333332
0.2163283333333333 0.4326566666666666 0.5420633333333332
0.2311533333333333 0.4623066666666666 0.5318733333333332
0.2607183333333333 0.0214366666666667 0.5333333333333332
0.2734283333333333 0.0468566666666667 0.5464033333333332
0.2729183333333333 0.0458366666666666 0.5722233333333332
0.2582983333333333 0.0165966666666666 0.5835533333333333
0.2581833333333333 0.0163666666666666 0.6070433333333333
0.2298783333333333 0.4597566666666666 0.5805733333333332
0.2440983333333333 0.4881966666666667 0.5689933333333332
0.2448983333333333 0.4897966666666667 0.5451133333333332
0.2996583333333332 0.0993166666666666 0.6249333333333332
0.2022133333333333 0.4044266666666667 0.5276933333333332
0.4047533333333332 0.4523766666666666 0.3796333333333333
0.3502433333333332 0.4251216666666666 0.4044733333333332
0.3191233333333333 0.4095616666666666 0.4181633333333333
0.2652433333333333 0.3826216666666666 0.4436533333333333
0.4354133333333333 0.4677066666666666 0.3656433333333333
0.2350133333333333 0.3675066666666666 0.4576833333333333
0.3909383333333333 0.4697366666666667 0.3854533333333333
0.3633983333333333 0.4564366666666667 0.3978733333333332
0.3061033333333333 0.4278016666666666 0.4240533333333332
0.2788083333333333 0.4135366666666667 0.4365033333333332
0.3486133333333333 0.4737566666666667 0.4048133333333332
0.3202483333333332 0.4595016666666667 0.4158833333333333
0.4272433333333333 0.2136216666666667 0.5860733333333333
0.4288633333333333 0.2144316666666667 0.6096633333333332
0.4578133333333333 0.2289066666666667 0.6204533333333332
0.0149133333333333 0.2574566666666666 0.6182933333333333
0.0401683333333333 0.2700816666666667 0.6054233333333332
0.0673233333333334 0.2836616666666667 0.5669933333333332
0.0673433333333334 0.2836716666666667 0.5420633333333332
0.0376933333333333 0.2688466666666667 0.5318733333333332
0.4785633333333333 0.2392816666666666 0.5333333333333332
0.4531433333333333 0.2265716666666666 0.5464033333333332
0.4541633333333333 0.2270816666666666 0.5722233333333332
0.4834033333333334 0.2417016666666667 0.5835533333333333
0.4836333333333332 0.2418166666666667 0.6070433333333333
0.0402433333333334 0.2701216666666667 0.5805733333333332
0.0118033333333333 0.2559016666666667 0.5689933333333332
0.0102033333333333 0.2551016666666667 0.5451133333333332
0.4006833333333332 0.2003416666666666 0.6249333333333332
0.0955733333333333 0.2977866666666666 0.5276933333333332
0.0476233333333334 0.4523766666666666 0.3796333333333333
0.0748783333333334 0.4251216666666666 0.4044733333333332
0.0904383333333334 0.4095616666666667 0.4181633333333333
0.1173783333333333 0.3826216666666666 0.4436533333333333
0.0322933333333333 0.4677066666666666 0.3656433333333333
0.1324933333333334 0.3675066666666666 0.4576833333333333
0.0302633333333333 0.4212016666666668 0.3854533333333333
0.0435633333333333 0.4069616666666667 0.3978733333333332
0.0721983333333334 0.3783016666666666 0.4240533333333332
0.0864633333333333 0.3652716666666666 0.4365033333333332
0.0262433333333333 0.3748566666666666 0.4048133333333332
0.0404983333333333 0.3607466666666667 0.4158833333333333
0.3802883333333333 0.1197116666666667 0.0805933333333333
0.3810983333333333 0.1189016666666667 0.0570033333333333
0.3955733333333332 0.1044266666666667 0.0462133333333333
0.4241233333333332 0.0758766666666667 0.0483733333333333
0.4367533333333332 0.0632516666666667 0.0612433333333333
0.4503283333333333 0.0496716666666667 0.0996733333333333
0.4503383333333332 0.0496616666666666 0.1246033333333333
0.4355133333333333 0.0644866666666667 0.1347933333333333
0.4059483333333332 0.0940516666666666 0.1333333333333333
0.3932383333333332 0.1067616666666666 0.1202633333333333
0.3937483333333333 0.1062516666666666 0.0944433333333333
0.4083683333333332 0.0916316666666667 0.0831133333333333
0.4084833333333332 0.0915166666666667 0.0596233333333333
0.4367883333333333 0.0632116666666667 0.0860933333333333
0.4225683333333333 0.0774316666666667 0.0976733333333333
0.4217683333333332 0.0782316666666667 0.1215533333333333
0.3670083333333333 0.1329916666666666 0.0417333333333333
0.4644533333333332 0.0355466666666666 0.1389733333333333
0.2619133333333333 0.3809566666666666 0.2870333333333333
0.3164233333333332 0.4082116666666665 0.2621933333333333
0.3475433333333333 0.4237716666666666 0.2485033333333332
0.4014233333333332 0.4507116666666665 0.2230133333333333
0.2312533333333333 0.3656266666666666 0.3010233333333333
0.4316533333333332 0.4658266666666666 0.2089833333333333
0.2757283333333333 0.4121316666666666 0.2812133333333333
0.3032683333333332 0.4263716666666666 0.2687933333333333
0.3605633333333332 0.4550316666666666 0.2426133333333333
0.3878583333333332 0.4680616666666667 0.2301633333333333
0.3180533333333332 0.4584766666666665 0.2618533333333333
0.3464183333333333 0.4725866666666667 0.2507833333333332
0.3802883333333333 0.2605766666666666 0.0805933333333333
0.3810983333333333 0.2621966666666666 0.0570033333333333
0.3955733333333333 0.2911466666666667 0.0462133333333333
0.4241233333333332 0.3482466666666666 0.0483733333333333
0.4367483333333332 0.3735016666666666 0.0612433333333333
0.4503283333333333 0.4006566666666667 0.0996733333333333
0.4503383333333333 0.4006766666666667 0.1246033333333333
0.4355133333333333 0.3710266666666666 0.1347933333333333
0.4059483333333332 0.3118966666666665 0.1333333333333333
0.3932383333333332 0.2864766666666666 0.1202633333333333
0.3937483333333333 0.2874966666666666 0.0944433333333333
0.4083683333333333 0.3167366666666667 0.0831133333333333
0.4084833333333333 0.3169666666666666 0.0596233333333333
0.4367883333333333 0.3735766666666667 0.0860933333333333
0.4225683333333333 0.3451366666666666 0.0976733333333333
0.4217683333333332 0.3435366666666666 0.1215533333333333
0.3670083333333333 0.2340166666666667 0.0417333333333333
0.4644533333333333 0.4289066666666666 0.1389733333333333
0.1190433333333333 0.3809566666666666 0.2870333333333333
0.0917883333333333 0.4082116666666665 0.2621933333333333
0.0762283333333334 0.4237716666666666 0.2485033333333332
0.0492883333333333 0.4507116666666665 0.2230133333333333
0.1343733333333333 0.3656266666666666 0.3010233333333333
0.0341733333333333 0.4658266666666666 0.2089833333333333
0.0878683333333333 0.3635966666666666 0.2812133333333333
0.0736283333333333 0.3768966666666666 0.2687933333333333
0.0449683333333333 0.4055316666666665 0.2426133333333333
0.0319383333333333 0.4197966666666665 0.2301633333333333
0.0415233333333333 0.3595766666666667 0.2618533333333333
0.0274133333333333 0.3738316666666666 0.2507833333333332
0.2394233333333333 0.1197116666666667 0.0805933333333333
0.2378033333333333 0.1189016666666666 0.0570033333333333
0.2088533333333333 0.1044266666666667 0.0462133333333333
0.1517533333333334 0.0758766666666667 0.0483733333333333
0.1264983333333334 0.0632466666666667 0.0612433333333333
0.0993433333333333 0.0496716666666666 0.0996733333333333
0.0993233333333332 0.0496616666666667 0.1246033333333333
0.1289733333333334 0.0644866666666667 0.1347933333333333
0.1881033333333333 0.0940516666666667 0.1333333333333333
0.2135233333333332 0.1067616666666666 0.1202633333333333
0.2125033333333332 0.1062516666666667 0.0944433333333333
0.1832633333333333 0.0916316666666666 0.0831133333333333
0.1830333333333334 0.0915166666666667 0.0596233333333333
0.1264233333333333 0.0632116666666666 0.0860933333333333
0.1548633333333333 0.0774316666666666 0.0976733333333333
0.1564633333333333 0.0782316666666667 0.1215533333333333
0.2659833333333332 0.1329916666666666 0.0417333333333333
0.0710933333333333 0.0355466666666667 0.1389733333333333
0.1190433333333333 0.2380866666666667 0.2870333333333333
0.0917883333333333 0.1835766666666666 0.2621933333333333
0.0762283333333333 0.1524566666666667 0.2485033333333332
0.0492883333333334 0.0985766666666667 0.2230133333333333
0.1343733333333333 0.2687466666666667 0.3010233333333333
0.0341733333333333 0.0683466666666667 0.2089833333333333
0.1364033333333333 0.2242716666666666 0.2812133333333333
0.1231033333333333 0.1967316666666666 0.2687933333333333
0.0944683333333334 0.1394366666666667 0.2426133333333333
0.0802033333333334 0.1121416666666667 0.2301633333333333
0.1404233333333333 0.1819466666666667 0.2618533333333333
0.1261683333333333 0.1535816666666667 0.2507833333333332
0.0878683333333333 0.2242716666666666 0.2812133333333333
0.0736283333333333 0.1967316666666666 0.2687933333333333
0.0449683333333333 0.1394366666666667 0.2426133333333333
0.0319383333333333 0.1121416666666667 0.2301633333333333
0.0415233333333333 0.1819466666666667 0.2618533333333333
0.0274133333333333 0.1535816666666667 0.2507833333333332
0.2757283333333333 0.3635966666666666 0.2812133333333333
0.3032683333333332 0.3768966666666666 0.2687933333333333
0.3605633333333332 0.4055316666666665 0.2426133333333333
0.3878583333333332 0.4197966666666665 0.2301633333333333
0.3180533333333332 0.3595766666666667 0.2618533333333333
0.3464183333333333 0.3738316666666666 0.2507833333333332
0.1364033333333333 0.4121316666666666 0.2812133333333333
0.1231033333333333 0.4263716666666666 0.2687933333333333
0.0944683333333334 0.4550316666666666 0.2426133333333333
0.0802033333333334 0.4680616666666667 0.2301633333333333
0.1404233333333333 0.4584766666666665 0.2618533333333333
0.1261683333333333 0.4725866666666667 0.2507833333333332
0.3909383333333333 0.4212016666666668 0.3854533333333333
0.3633983333333333 0.4069616666666667 0.3978733333333332
0.3061033333333333 0.3783016666666666 0.4240533333333332
0.2788083333333333 0.3652716666666666 0.4365033333333332
0.3486133333333333 0.3748566666666666 0.4048133333333332
0.3202483333333333 0.3607466666666667 0.4158833333333333
0.0787983333333333 0.4697366666666667 0.3854533333333333
0.0930383333333333 0.4564366666666667 0.3978733333333332
0.1216983333333333 0.4278016666666666 0.4240533333333332
0.1347283333333333 0.4135366666666667 0.4365033333333332
0.1251433333333334 0.4737566666666667 0.4048133333333332
0.1392533333333333 0.4595016666666667 0.4158833333333333
0.0302633333333333 0.1090616666666666 0.3854533333333333
0.0435633333333333 0.1366016666666666 0.3978733333333332
0.0721983333333333 0.1938966666666666 0.4240533333333332
0.0864633333333333 0.2211916666666666 0.4365033333333332
0.0262433333333333 0.1513866666666667 0.4048133333333332
0.0404983333333333 0.1797516666666666 0.4158833333333333
0.1197116666666667 0.3802883333333333 0.9194066666666666
0.1189016666666667 0.3810983333333334 0.9429966666666666
0.1044266666666667 0.3955733333333334 0.9537866666666664
0.0758766666666668 0.4241233333333334 0.9516266666666664
0.0632516666666667 0.4367533333333333 0.9387566666666666
0.0496716666666667 0.4503283333333333 0.9003266666666665
0.0496616666666666 0.4503383333333332 0.8753966666666665
0.0644866666666667 0.4355133333333333 0.8652066666666666
0.0940516666666666 0.4059483333333332 0.8666666666666666
0.1067616666666666 0.3932383333333332 0.8797366666666665
0.1062516666666667 0.3937483333333334 0.9055566666666663
0.0916316666666667 0.4083683333333334 0.9168866666666665
0.0915166666666667 0.4084833333333333 0.9403766666666664
0.0632116666666667 0.4367883333333334 0.9139066666666665
0.0774316666666667 0.4225683333333334 0.9023266666666664
0.0782316666666667 0.4217683333333333 0.8784466666666665
0.1329916666666666 0.3670083333333333 0.9582666666666665
0.0355466666666666 0.4644533333333333 0.8610266666666665
0.3809566666666666 0.2619133333333333 0.7129666666666665
0.4082116666666665 0.3164233333333333 0.7378066666666665
0.4237716666666665 0.3475433333333333 0.7514966666666664
0.4507116666666666 0.4014233333333333 0.7769866666666664
0.3656266666666665 0.2312533333333333 0.6989766666666665
0.4658266666666665 0.4316533333333333 0.7910166666666665
0.4121316666666666 0.2757283333333333 0.7187866666666666
0.4263716666666666 0.3032683333333332 0.7312066666666666
0.4550316666666666 0.3605633333333333 0.7573866666666665
0.4680616666666667 0.3878583333333332 0.7698366666666665
0.4584766666666666 0.3180533333333333 0.7381466666666664
0.4725866666666667 0.3464183333333333 0.7492166666666665
0.1197116666666667 0.2394233333333333 0.9194066666666666
0.1189016666666666 0.2378033333333333 0.9429966666666666
0.1044266666666667 0.2088533333333333 0.9537866666666664
0.0758766666666666 0.1517533333333334 0.9516266666666664
0.0632466666666667 0.1264983333333334 0.9387566666666666
0.0496716666666667 0.0993433333333333 0.9003266666666665
0.0496616666666667 0.0993233333333332 0.8753966666666665
0.0644866666666667 0.1289733333333334 0.8652066666666666
0.0940516666666667 0.1881033333333333 0.8666666666666666
0.1067616666666666 0.2135233333333333 0.8797366666666665
0.1062516666666666 0.2125033333333332 0.9055566666666663
0.0916316666666666 0.1832633333333333 0.9168866666666665
0.0915166666666666 0.1830333333333334 0.9403766666666664
0.0632116666666667 0.1264233333333333 0.9139066666666665
0.0774316666666667 0.1548633333333333 0.9023266666666664
0.0782316666666666 0.1564633333333334 0.8784466666666665
0.1329916666666667 0.2659833333333332 0.9582666666666665
0.0355466666666667 0.0710933333333333 0.8610266666666665
0.2380866666666666 0.1190433333333333 0.7129666666666665
0.1835766666666666 0.0917883333333333 0.7378066666666665
0.1524566666666666 0.0762283333333333 0.7514966666666664
0.0985766666666666 0.0492883333333334 0.7769866666666664
0.2687466666666666 0.1343733333333333 0.6989766666666665
0.0683466666666666 0.0341733333333333 0.7910166666666665
0.2242716666666666 0.1364033333333333 0.7187866666666666
0.1967316666666666 0.1231033333333333 0.7312066666666666
0.1394366666666666 0.0944683333333334 0.7573866666666665
0.1121416666666666 0.0802033333333334 0.7698366666666665
0.1819466666666667 0.1404233333333333 0.7381466666666664
0.1535816666666666 0.1261683333333333 0.7492166666666665
0.2605766666666667 0.3802883333333333 0.9194066666666666
0.2621966666666667 0.3810983333333334 0.9429966666666666
0.2911466666666667 0.3955733333333334 0.9537866666666664
0.3482466666666666 0.4241233333333334 0.9516266666666664
0.3735016666666666 0.4367483333333333 0.9387566666666666
0.4006566666666666 0.4503283333333333 0.9003266666666665
0.4006766666666667 0.4503383333333333 0.8753966666666665
0.3710266666666665 0.4355133333333333 0.8652066666666666
0.3118966666666665 0.4059483333333332 0.8666666666666666
0.2864766666666665 0.3932383333333332 0.8797366666666665
0.2874966666666666 0.3937483333333334 0.9055566666666663
0.3167366666666667 0.4083683333333334 0.9168866666666665
0.3169666666666666 0.4084833333333333 0.9403766666666664
0.3735766666666667 0.4367883333333334 0.9139066666666665
0.3451366666666666 0.4225683333333334 0.9023266666666664
0.3435366666666665 0.4217683333333333 0.8784466666666665
0.2340166666666666 0.3670083333333333 0.9582666666666665
0.4289066666666666 0.4644533333333333 0.8610266666666665
0.3809566666666666 0.1190433333333333 0.7129666666666665
0.4082116666666666 0.0917883333333333 0.7378066666666665
0.4237716666666666 0.0762283333333333 0.7514966666666664
0.4507116666666665 0.0492883333333333 0.7769866666666664
0.3656266666666666 0.1343733333333333 0.6989766666666665
0.4658266666666666 0.0341733333333333 0.7910166666666665
0.3635966666666666 0.0878683333333333 0.7187866666666666
0.3768966666666667 0.0736283333333333 0.7312066666666666
0.4055316666666666 0.0449683333333333 0.7573866666666665
0.4197966666666665 0.0319383333333333 0.7698366666666665
0.3595766666666667 0.0415233333333333 0.7381466666666664
0.3738316666666666 0.0274133333333333 0.7492166666666665
0.2136216666666666 0.2863783333333332 0.4139266666666666
0.2144316666666666 0.2855683333333333 0.3903366666666666
0.2289066666666666 0.2710933333333333 0.3795466666666666
0.2574566666666666 0.2425433333333333 0.3817066666666666
0.2700866666666666 0.2299183333333333 0.3945766666666666
0.2836616666666666 0.2163383333333333 0.4330066666666665
0.2836716666666666 0.2163283333333332 0.4579366666666666
0.2688466666666667 0.2311533333333333 0.4681266666666665
0.2392816666666667 0.2607183333333334 0.4666666666666666
0.2265716666666667 0.2734283333333334 0.4535966666666666
0.2270816666666666 0.2729183333333333 0.4277766666666665
0.2417016666666666 0.2582983333333333 0.4164466666666666
0.2418166666666666 0.2581833333333333 0.3929566666666666
0.2701216666666666 0.2298783333333333 0.4194266666666666
0.2559016666666666 0.2440983333333333 0.4310066666666665
0.2551016666666667 0.2448983333333333 0.4548866666666666
0.2003416666666666 0.2996583333333333 0.3750666666666665
0.2977866666666666 0.2022133333333334 0.4723066666666665
0.0952466666666667 0.0476233333333333 0.6203666666666665
0.1497566666666666 0.0748783333333334 0.5955266666666665
0.1808766666666666 0.0904383333333333 0.5818366666666666
0.2347566666666666 0.1173783333333334 0.5563466666666665
0.0645866666666667 0.0322933333333333 0.6343566666666666
0.2649866666666666 0.1324933333333334 0.5423166666666666
0.1090616666666666 0.0787983333333333 0.6145466666666665
0.1366016666666666 0.0930383333333333 0.6021266666666665
0.1938966666666666 0.1216983333333332 0.5759466666666665
0.2211916666666666 0.1347283333333333 0.5634966666666665
0.1513866666666667 0.1251433333333334 0.5951866666666666
0.1797516666666666 0.1392533333333333 0.5841166666666665
0.2136216666666667 0.4272433333333334 0.4139266666666666
0.2144316666666667 0.4288633333333333 0.3903366666666666
0.2289066666666667 0.4578133333333334 0.3795466666666666
0.2574566666666666 0.0149133333333333 0.3817066666666666
0.2700816666666666 0.0401683333333333 0.3945766666666666
0.2836616666666666 0.0673233333333333 0.4330066666666665
0.2836716666666667 0.0673433333333334 0.4579366666666666
0.2688466666666666 0.0376933333333333 0.4681266666666665
0.2392816666666666 0.4785633333333333 0.4666666666666666
0.2265716666666666 0.4531433333333333 0.4535966666666666
0.2270816666666667 0.4541633333333334 0.4277766666666665
0.2417016666666667 0.4834033333333334 0.4164466666666666
0.2418166666666667 0.4836333333333333 0.3929566666666666
0.2701216666666666 0.0402433333333334 0.4194266666666666
0.2559016666666666 0.0118033333333333 0.4310066666666665
0.2551016666666667 0.0102033333333333 0.4548866666666666
0.2003416666666666 0.4006833333333333 0.3750666666666665
0.2977866666666666 0.0955733333333333 0.4723066666666665
0.4523766666666666 0.0476233333333333 0.6203666666666665
0.4251216666666666 0.0748783333333334 0.5955266666666665
0.4095616666666667 0.0904383333333333 0.5818366666666666
0.3826216666666666 0.1173783333333333 0.5563466666666665
0.4677066666666665 0.0322933333333333 0.6343566666666666
0.3675066666666666 0.1324933333333334 0.5423166666666666
0.4212016666666666 0.0302633333333333 0.6145466666666665
0.4069616666666666 0.0435633333333333 0.6021266666666665
0.3783016666666666 0.0721983333333333 0.5759466666666665
0.3652716666666666 0.0864633333333333 0.5634966666666665
0.3748566666666666 0.0262433333333333 0.5951866666666666
0.3607466666666667 0.0404983333333333 0.5841166666666665
0.0727566666666666 0.2863783333333332 0.4139266666666666
0.0711366666666666 0.2855683333333333 0.3903366666666666
0.0421866666666666 0.2710933333333333 0.3795466666666666
0.4850866666666665 0.2425433333333333 0.3817066666666666
0.4598316666666666 0.2299133333333333 0.3945766666666666
0.4326766666666665 0.2163383333333333 0.4330066666666665
0.4326566666666665 0.2163283333333333 0.4579366666666666
0.4623066666666666 0.2311533333333333 0.4681266666666665
0.0214366666666667 0.2607183333333333 0.4666666666666666
0.0468566666666667 0.2734283333333333 0.4535966666666666
0.0458366666666666 0.2729183333333333 0.4277766666666665
0.0165966666666666 0.2582983333333333 0.4164466666666666
0.0163666666666667 0.2581833333333333 0.3929566666666666
0.4597566666666665 0.2298783333333333 0.4194266666666666
0.4881966666666665 0.2440983333333333 0.4310066666666665
0.4897966666666665 0.2448983333333333 0.4548866666666666
0.0993166666666666 0.2996583333333332 0.3750666666666665
0.4044266666666667 0.2022133333333334 0.4723066666666665
0.4523766666666666 0.4047533333333332 0.6203666666666665
0.4251216666666665 0.3502433333333332 0.5955266666666665
0.4095616666666665 0.3191233333333333 0.5818366666666666
0.3826216666666666 0.2652433333333333 0.5563466666666665
0.4677066666666666 0.4354133333333333 0.6343566666666666
0.3675066666666666 0.2350133333333333 0.5423166666666666
0.4697366666666666 0.3909383333333333 0.6145466666666665
0.4564366666666666 0.3633983333333333 0.6021266666666665
0.4278016666666666 0.3061033333333333 0.5759466666666665
0.4135366666666667 0.2788083333333333 0.5634966666666665
0.4737566666666666 0.3486133333333333 0.5951866666666666
0.4595016666666666 0.3202483333333333 0.5841166666666665
0.4212016666666666 0.3909383333333333 0.6145466666666665
0.4069616666666666 0.3633983333333333 0.6021266666666665
0.3783016666666666 0.3061033333333333 0.5759466666666665
0.3652716666666667 0.2788083333333333 0.5634966666666665
0.3748566666666666 0.3486133333333333 0.5951866666666666
0.3607466666666666 0.3202483333333333 0.5841166666666665
0.1090616666666666 0.0302633333333333 0.6145466666666665
0.1366016666666666 0.0435633333333333 0.6021266666666665
0.1938966666666666 0.0721983333333333 0.5759466666666665
0.2211916666666666 0.0864633333333333 0.5634966666666665
0.1513866666666666 0.0262433333333333 0.5951866666666666
0.1797516666666666 0.0404983333333333 0.5841166666666665
0.4697366666666666 0.0787983333333333 0.6145466666666665
0.4564366666666666 0.0930383333333333 0.6021266666666665
0.4278016666666666 0.1216983333333332 0.5759466666666665
0.4135366666666667 0.1347283333333333 0.5634966666666665
0.4737566666666667 0.1251433333333334 0.5951866666666666
0.4595016666666666 0.1392533333333333 0.5841166666666665
0.2242716666666666 0.0878683333333333 0.7187866666666666
0.1967316666666666 0.0736283333333333 0.7312066666666666
0.1394366666666666 0.0449683333333333 0.7573866666666665
0.1121416666666666 0.0319383333333333 0.7698366666666665
0.1819466666666666 0.0415233333333333 0.7381466666666664
0.1535816666666666 0.0274133333333333 0.7492166666666665
0.4121316666666666 0.1364033333333333 0.7187866666666666
0.4263716666666666 0.1231033333333333 0.7312066666666666
0.4550316666666666 0.0944683333333334 0.7573866666666665
0.4680616666666667 0.0802033333333334 0.7698366666666665
0.4584766666666666 0.1404233333333333 0.7381466666666664
0.4725866666666667 0.1261683333333333 0.7492166666666665
0.3635966666666666 0.2757283333333333 0.7187866666666666
0.3768966666666665 0.3032683333333332 0.7312066666666666
0.4055316666666666 0.3605633333333333 0.7573866666666665
0.4197966666666665 0.3878583333333332 0.7698366666666665
0.3595766666666666 0.3180533333333333 0.7381466666666664
0.3738316666666666 0.3464183333333333 0.7492166666666665
0.4530449999999999 0.5469550000000000 0.2527400000000000
0.4522349999999999 0.5477650000000001 0.2763300000000000
0.4377599999999999 0.5622399999999999 0.2871199999999999
0.4092100000000000 0.5907900000000000 0.2849599999999999
0.3965850000000000 0.6034200000000000 0.2720899999999999
0.3830049999999999 0.6169950000000000 0.2336600000000000
0.3829949999999999 0.6170050000000000 0.2087300000000000
0.3978199999999999 0.6021800000000000 0.1985399999999999
0.4273849999999999 0.5726149999999999 0.2000000000000000
0.4400949999999999 0.5599050000000000 0.2130700000000000
0.4395849999999999 0.5604150000000000 0.2388900000000000
0.4249649999999999 0.5750349999999999 0.2502199999999999
0.4248499999999999 0.5751499999999999 0.2737100000000000
0.3965449999999999 0.6034550000000000 0.2472399999999999
0.4107649999999999 0.5892350000000000 0.2356600000000000
0.4115649999999999 0.5884350000000000 0.2117800000000000
0.4663249999999999 0.5336750000000000 0.2916000000000000
0.3688800000000000 0.6311200000000000 0.1943599999999999
0.2142900000000000 0.9285800000000000 0.0463000000000000
0.2415449999999999 0.9830899999999999 0.0711400000000000
0.2571049999999999 0.5142100000000001 0.0848300000000000
0.2840450000000000 0.5680900000000000 0.1103200000000000
0.1989600000000000 0.8979199999999999 0.0323100000000000
0.2991599999999999 0.5983200000000000 0.1243500000000000
0.2454650000000000 0.9423949999999999 0.0521200000000000
0.2597050000000000 0.9699350000000000 0.0645400000000000
0.2883650000000000 0.5272300000000000 0.0907200000000000
0.3013950000000000 0.5545249999999999 0.1031700000000000
0.2918100000000000 0.9847200000000000 0.0714800000000000
0.3059200000000001 0.5130850000000000 0.0825500000000000
0.4530450000000000 0.9060899999999998 0.2527400000000000
0.4522349999999999 0.9044700000000000 0.2763300000000000
0.4377599999999999 0.8755200000000000 0.2871199999999999
0.4092100000000000 0.8184200000000000 0.2849599999999999
0.3965799999999999 0.7931649999999999 0.2720899999999999
0.3830049999999999 0.7660100000000000 0.2336600000000000
0.3829949999999999 0.7659899999999998 0.2087300000000000
0.3978199999999999 0.7956399999999999 0.1985399999999999
0.4273850000000000 0.8547700000000000 0.2000000000000000
0.4400950000000000 0.8801899999999999 0.2130700000000000
0.4395849999999999 0.8791699999999999 0.2388900000000000
0.4249649999999999 0.8499300000000000 0.2502199999999999
0.4248499999999999 0.8496999999999999 0.2737100000000000
0.3965449999999999 0.7930900000000000 0.2472399999999999
0.4107649999999999 0.8215299999999999 0.2356600000000000
0.4115650000000000 0.8231300000000000 0.2117800000000000
0.4663249999999999 0.9326499999999999 0.2916000000000000
0.3688799999999999 0.7377599999999999 0.1943599999999999
0.0714200000000000 0.7857100000000000 0.0463000000000000
0.0169100000000000 0.7584549999999999 0.0711400000000000
0.4857899999999999 0.7428950000000000 0.0848300000000000
0.4319100000000000 0.7159549999999999 0.1103200000000000
0.1020800000000000 0.8010400000000000 0.0323100000000000
0.4016800000000000 0.7008399999999999 0.1243500000000000
0.0576050000000001 0.8030699999999998 0.0521200000000000
0.0300650000000001 0.7897700000000001 0.0645400000000000
0.4727700000000000 0.7611350000000000 0.0907200000000000
0.4454750000000000 0.7468700000000000 0.1031700000000000
0.0152800000000000 0.8070900000000000 0.0714800000000000
0.4869149999999999 0.7928350000000000 0.0825500000000000
0.0939100000000000 0.5469550000000001 0.2527400000000000
0.0955300000000000 0.5477650000000001 0.2763300000000000
0.1244800000000000 0.5622400000000001 0.2871199999999999
0.1815799999999999 0.5907899999999999 0.2849599999999999
0.2068350000000000 0.6034149999999999 0.2720899999999999
0.2339900000000000 0.6169950000000000 0.2336600000000000
0.2340100000000001 0.6170050000000000 0.2087300000000000
0.2043600000000000 0.6021799999999999 0.1985399999999999
0.1452299999999999 0.5726149999999999 0.2000000000000000
0.1198099999999999 0.5599050000000000 0.2130700000000000
0.1208300000000000 0.5604150000000000 0.2388900000000000
0.1500700000000000 0.5750349999999999 0.2502199999999999
0.1503000000000000 0.5751499999999999 0.2737100000000000
0.2069100000000000 0.6034550000000001 0.2472399999999999
0.1784700000000000 0.5892350000000000 0.2356600000000000
0.1768700000000000 0.5884350000000000 0.2117800000000000
0.0673500000000000 0.5336750000000000 0.2916000000000000
0.2622400000000000 0.6311200000000000 0.1943599999999999
0.2142900000000000 0.7857100000000000 0.0463000000000000
0.2415450000000000 0.7584549999999999 0.0711400000000000
0.2571050000000000 0.7428950000000000 0.0848300000000000
0.2840449999999999 0.7159549999999999 0.1103200000000000
0.1989600000000000 0.8010400000000000 0.0323100000000000
0.2991600000000000 0.7008400000000000 0.1243500000000000
0.1969300000000000 0.7545350000000000 0.0521200000000000
0.2102300000000000 0.7402949999999999 0.0645400000000000
0.2388650000000000 0.7116349999999999 0.0907200000000000
0.2531300000000000 0.6986049999999998 0.1031700000000000
0.1929099999999999 0.7081899999999999 0.0714800000000000
0.2071650000000000 0.6940799999999999 0.0825500000000000
0.0469550000000000 0.9530449999999999 0.7472599999999998
0.0477650000000001 0.9522349999999999 0.7236699999999999
0.0622400000000000 0.9377599999999999 0.7128799999999997
0.0907900000000001 0.9092100000000002 0.7150399999999999
0.1034200000000001 0.8965850000000000 0.7279099999999998
0.1169950000000001 0.8830050000000000 0.7663399999999999
0.1170050000000000 0.8829950000000001 0.7912699999999998
0.1021800000000000 0.8978200000000000 0.8014600000000000
0.0726150000000000 0.9273850000000000 0.7999999999999998
0.0599050000000001 0.9400950000000001 0.7869299999999998
0.0604150000000001 0.9395850000000000 0.7611099999999998
0.0750350000000001 0.9249650000000000 0.7497799999999999
0.0751500000000001 0.9248499999999999 0.7262899999999999
0.1034550000000001 0.8965449999999998 0.7527599999999999
0.0892350000000001 0.9107650000000002 0.7643399999999999
0.0884350000000001 0.9115650000000001 0.7882199999999999
0.0336750000000001 0.9663250000000001 0.7083999999999997
0.1311200000000001 0.8688800000000000 0.8056399999999999
0.4285800000000000 0.7142900000000000 0.9536999999999998
0.4830900000000000 0.7415450000000000 0.9288599999999999
0.0142100000000000 0.7571049999999999 0.9151699999999999
0.0680900000000000 0.7840450000000000 0.8896799999999999
0.3979200000000000 0.6989600000000000 0.9676899999999998
0.0983200000000001 0.7991600000000000 0.8756499999999998
0.4423949999999999 0.7454650000000000 0.9478799999999998
0.4699349999999999 0.7597050000000000 0.9354599999999997
0.0272300000000000 0.7883650000000000 0.9092799999999999
0.0545250000000001 0.8013950000000001 0.8968299999999999
0.4847200000000000 0.7918100000000000 0.9285199999999999
0.0130850000000000 0.8059200000000000 0.9174499999999999
0.0469550000000001 0.5939100000000000 0.7472599999999998
0.0477650000000000 0.5955300000000000 0.7236699999999999
0.0622400000000000 0.6244799999999999 0.7128799999999997
0.0907900000000001 0.6815800000000000 0.7150399999999999
0.1034150000000000 0.7068350000000000 0.7279099999999998
0.1169950000000000 0.7339900000000000 0.7663399999999999
0.1170050000000001 0.7340099999999999 0.7912699999999998
0.1021800000000000 0.7043600000000000 0.8014600000000000
0.0726150000000000 0.6452300000000000 0.7999999999999998
0.0599050000000000 0.6198099999999999 0.7869299999999998
0.0604150000000000 0.6208299999999999 0.7611099999999998
0.0750350000000000 0.6500699999999999 0.7497799999999999
0.0751500000000000 0.6503000000000000 0.7262899999999999
0.1034550000000001 0.7069099999999999 0.7527599999999999
0.0892350000000000 0.6784699999999999 0.7643399999999999
0.0884350000000000 0.6768700000000000 0.7882199999999999
0.0336750000000000 0.5673500000000000 0.7083999999999997
0.1311200000000001 0.7622400000000000 0.8056399999999999
0.2857100000000001 0.7142900000000000 0.9536999999999998
0.2584550000000000 0.7415450000000000 0.9288599999999999
0.2428950000000001 0.7571050000000000 0.9151699999999999
0.2159550000000001 0.7840450000000000 0.8896799999999999
0.3010400000000000 0.6989600000000000 0.9676899999999998
0.2008400000000001 0.7991600000000002 0.8756499999999998
0.2545350000000000 0.6969300000000000 0.9478799999999998
0.2402950000000000 0.7102299999999999 0.9354599999999997
0.2116350000000000 0.7388650000000000 0.9092799999999999
0.1986049999999999 0.7531300000000000 0.8968299999999999
0.2081900000000000 0.6929099999999999 0.9285199999999999
0.1940800000000000 0.7071650000000000 0.9174499999999999
0.4060900000000000 0.9530450000000000 0.7472599999999998
0.4044700000000000 0.9522349999999999 0.7236699999999999
0.3755200000000000 0.9377599999999999 0.7128799999999997
0.3184200000000000 0.9092100000000002 0.7150399999999999
0.2931650000000001 0.8965800000000000 0.7279099999999998
0.2660100000000000 0.8830050000000000 0.7663399999999999
0.2659900000000000 0.8829950000000001 0.7912699999999998
0.2956400000000000 0.8978200000000000 0.8014600000000000
0.3547700000000000 0.9273850000000000 0.7999999999999998
0.3801900000000000 0.9400950000000001 0.7869299999999998
0.3791700000000001 0.9395850000000000 0.7611099999999998
0.3499300000000000 0.9249650000000000 0.7497799999999999
0.3497000000000000 0.9248499999999999 0.7262899999999999
0.2930900000000000 0.8965449999999998 0.7527599999999999
0.3215300000000000 0.9107650000000002 0.7643399999999999
0.3231300000000001 0.9115650000000001 0.7882199999999999
0.4326500000000000 0.9663250000000001 0.7083999999999997
0.2377600000000001 0.8688800000000000 0.8056399999999999
0.2857100000000000 0.5714200000000000 0.9536999999999998
0.2584550000000000 0.5169100000000000 0.9288599999999999
0.2428950000000000 0.9857899999999999 0.9151699999999999
0.2159550000000000 0.9319099999999999 0.8896799999999999
0.3010400000000000 0.6020799999999999 0.9676899999999998
0.2008400000000000 0.9016800000000000 0.8756499999999998
0.3030700000000001 0.5576050000000001 0.9478799999999998
0.2897700000000000 0.5300650000000001 0.9354599999999997
0.2611350000000001 0.9727700000000000 0.9092799999999999
0.2468700000000000 0.9454750000000000 0.8968299999999999
0.3070900000000000 0.5152800000000000 0.9285199999999999
0.2928350000000001 0.9869150000000000 0.9174499999999999
0.2545350000000001 0.5576050000000001 0.9478799999999998
0.2402950000000000 0.5300650000000001 0.9354599999999997
0.2116350000000000 0.9727700000000000 0.9092799999999999
0.1986049999999999 0.9454750000000000 0.8968299999999999
0.2081900000000000 0.5152800000000000 0.9285199999999999
0.1940800000000000 0.9869150000000000 0.9174499999999999
0.4423950000000000 0.6969300000000000 0.9478799999999998
0.4699350000000000 0.7102299999999999 0.9354599999999997
0.0272300000000000 0.7388650000000000 0.9092799999999999
0.0545250000000000 0.7531300000000000 0.8968299999999999
0.4847200000000000 0.6929099999999999 0.9285199999999999
0.0130850000000000 0.7071650000000000 0.9174499999999999
0.3030700000000000 0.7454650000000000 0.9478799999999998
0.2897700000000000 0.7597050000000000 0.9354599999999997
0.2611350000000000 0.7883650000000000 0.9092799999999999
0.2468700000000001 0.8013950000000001 0.8968299999999999
0.3070900000000000 0.7918100000000000 0.9285199999999999
0.2928350000000000 0.8059200000000000 0.9174499999999999
0.0576050000000001 0.7545350000000000 0.0521200000000000
0.0300650000000001 0.7402949999999999 0.0645400000000000
0.4727700000000000 0.7116349999999999 0.0907200000000000
0.4454750000000000 0.6986049999999998 0.1031700000000000
0.0152800000000000 0.7081899999999999 0.0714800000000000
0.4869149999999999 0.6940799999999999 0.0825500000000000
0.2454650000000000 0.8030699999999998 0.0521200000000000
0.2597050000000000 0.7897700000000001 0.0645400000000000
0.2883650000000000 0.7611350000000000 0.0907200000000000
0.3013950000000000 0.7468700000000000 0.1031700000000000
0.2918100000000000 0.8070900000000000 0.0714800000000000
0.3059200000000000 0.7928350000000000 0.0825500000000000
0.1969300000000000 0.9423949999999999 0.0521200000000000
0.2102300000000000 0.9699350000000000 0.0645400000000000
0.2388650000000000 0.5272300000000000 0.0907200000000000
0.2531300000000000 0.5545249999999999 0.1031700000000000
0.1929100000000000 0.9847200000000000 0.0714800000000000
0.2071650000000000 0.5130850000000000 0.0825500000000000
0.2863783333333333 0.7136216666666665 0.5860733333333333
0.2855683333333333 0.7144316666666667 0.6096633333333332
0.2710933333333332 0.7289066666666665 0.6204533333333332
0.2425433333333333 0.7574566666666666 0.6182933333333333
0.2299183333333334 0.7700866666666666 0.6054233333333332
0.2163383333333332 0.7836616666666665 0.5669933333333332
0.2163283333333332 0.7836716666666665 0.5420633333333332
0.2311533333333333 0.7688466666666666 0.5318733333333332
0.2607183333333334 0.7392816666666665 0.5333333333333332
0.2734283333333334 0.7265716666666666 0.5464033333333332
0.2729183333333334 0.7270816666666665 0.5722233333333332
0.2582983333333333 0.7417016666666667 0.5835533333333333
0.2581833333333332 0.7418166666666666 0.6070433333333333
0.2298783333333332 0.7701216666666664 0.5805733333333332
0.2440983333333333 0.7559016666666666 0.5689933333333332
0.2448983333333333 0.7551016666666666 0.5451133333333332
0.2996583333333334 0.7003416666666666 0.6249333333333332
0.2022133333333333 0.7977866666666664 0.5276933333333332
0.0476233333333334 0.5952466666666667 0.3796333333333333
0.0748783333333335 0.6497566666666666 0.4044733333333332
0.0904383333333333 0.6808766666666667 0.4181633333333333
0.1173783333333334 0.7347566666666666 0.4436533333333333
0.0322933333333334 0.5645866666666667 0.3656433333333333
0.1324933333333334 0.7649866666666665 0.4576833333333333
0.0787983333333334 0.6090616666666666 0.3854533333333333
0.0930383333333334 0.6366016666666665 0.3978733333333332
0.1216983333333333 0.6938966666666665 0.4240533333333332
0.1347283333333333 0.7211916666666666 0.4365033333333332
0.1251433333333335 0.6513866666666666 0.4048133333333332
0.1392533333333333 0.6797516666666665 0.4158833333333333
0.2863783333333333 0.5727566666666665 0.5860733333333333
0.2855683333333333 0.5711366666666665 0.6096633333333332
0.2710933333333332 0.5421866666666666 0.6204533333333332
0.2425433333333334 0.9850866666666667 0.6182933333333333
0.2299133333333334 0.9598316666666667 0.6054233333333332
0.2163383333333333 0.9326766666666665 0.5669933333333332
0.2163283333333333 0.9326566666666665 0.5420633333333332
0.2311533333333333 0.9623066666666665 0.5318733333333332
0.2607183333333333 0.5214366666666665 0.5333333333333332
0.2734283333333333 0.5468566666666665 0.5464033333333332
0.2729183333333333 0.5458366666666666 0.5722233333333332
0.2582983333333333 0.5165966666666666 0.5835533333333333
0.2581833333333333 0.5163666666666665 0.6070433333333333
0.2298783333333333 0.9597566666666665 0.5805733333333332
0.2440983333333333 0.9881966666666665 0.5689933333333332
0.2448983333333333 0.9897966666666664 0.5451133333333332
0.2996583333333332 0.5993166666666665 0.6249333333333332
0.2022133333333333 0.9044266666666665 0.5276933333333332
0.4047533333333334 0.9523766666666666 0.3796333333333333
0.3502433333333334 0.9251216666666665 0.4044733333333332
0.3191233333333333 0.9095616666666664 0.4181633333333333
0.2652433333333333 0.8826216666666664 0.4436533333333333
0.4354133333333333 0.9677066666666666 0.3656433333333333
0.2350133333333333 0.8675066666666664 0.4576833333333333
0.3909383333333333 0.9697366666666667 0.3854533333333333
0.3633983333333333 0.9564366666666665 0.3978733333333332
0.3061033333333333 0.9278016666666664 0.4240533333333332
0.2788083333333333 0.9135366666666666 0.4365033333333332
0.3486133333333333 0.9737566666666666 0.4048133333333332
0.3202483333333333 0.9595016666666665 0.4158833333333333
0.4272433333333334 0.7136216666666666 0.5860733333333333
0.4288633333333333 0.7144316666666667 0.6096633333333332
0.4578133333333333 0.7289066666666667 0.6204533333333332
0.0149133333333333 0.7574566666666666 0.6182933333333333
0.0401683333333335 0.7700816666666668 0.6054233333333332
0.0673233333333334 0.7836616666666665 0.5669933333333332
0.0673433333333334 0.7836716666666665 0.5420633333333332
0.0376933333333334 0.7688466666666666 0.5318733333333332
0.4785633333333333 0.7392816666666665 0.5333333333333332
0.4531433333333333 0.7265716666666666 0.5464033333333332
0.4541633333333333 0.7270816666666665 0.5722233333333332
0.4834033333333334 0.7417016666666667 0.5835533333333333
0.4836333333333332 0.7418166666666666 0.6070433333333333
0.0402433333333335 0.7701216666666666 0.5805733333333332
0.0118033333333334 0.7559016666666666 0.5689933333333332
0.0102033333333334 0.7551016666666666 0.5451133333333332
0.4006833333333333 0.7003416666666666 0.6249333333333332
0.0955733333333333 0.7977866666666664 0.5276933333333332
0.0476233333333334 0.9523766666666666 0.3796333333333333
0.0748783333333335 0.9251216666666665 0.4044733333333332
0.0904383333333333 0.9095616666666665 0.4181633333333333
0.1173783333333332 0.8826216666666664 0.4436533333333333
0.0322933333333333 0.9677066666666666 0.3656433333333333
0.1324933333333334 0.8675066666666664 0.4576833333333333
0.0302633333333333 0.9212016666666667 0.3854533333333333
0.0435633333333333 0.9069616666666666 0.3978733333333332
0.0721983333333333 0.8783016666666665 0.4240533333333332
0.0864633333333333 0.8652716666666664 0.4365033333333332
0.0262433333333333 0.8748566666666665 0.4048133333333332
0.0404983333333333 0.8607466666666664 0.4158833333333333
0.3802883333333333 0.6197116666666667 0.0805933333333333
0.3810983333333333 0.6189016666666666 0.0570033333333333
0.3955733333333333 0.6044266666666666 0.0462133333333333
0.4241233333333332 0.5758766666666667 0.0483733333333333
0.4367533333333333 0.5632516666666667 0.0612433333333333
0.4503283333333333 0.5496716666666667 0.0996733333333333
0.4503383333333332 0.5496616666666666 0.1246033333333333
0.4355133333333333 0.5644866666666667 0.1347933333333333
0.4059483333333332 0.5940516666666665 0.1333333333333333
0.3932383333333332 0.6067616666666666 0.1202633333333333
0.3937483333333333 0.6062516666666665 0.0944433333333333
0.4083683333333333 0.5916316666666666 0.0831133333333333
0.4084833333333333 0.5915166666666667 0.0596233333333333
0.4367883333333333 0.5632116666666667 0.0860933333333333
0.4225683333333333 0.5774316666666667 0.0976733333333333
0.4217683333333332 0.5782316666666667 0.1215533333333333
0.3670083333333333 0.6329916666666666 0.0417333333333333
0.4644533333333332 0.5355466666666666 0.1389733333333333
0.2619133333333333 0.8809566666666665 0.2870333333333333
0.3164233333333332 0.9082116666666665 0.2621933333333333
0.3475433333333332 0.9237716666666665 0.2485033333333332
0.4014233333333332 0.9507116666666666 0.2230133333333333
0.2312533333333333 0.8656266666666667 0.3010233333333333
0.4316533333333332 0.9658266666666665 0.2089833333333333
0.2757283333333334 0.9121316666666667 0.2812133333333333
0.3032683333333332 0.9263716666666667 0.2687933333333333
0.3605633333333333 0.9550316666666665 0.2426133333333333
0.3878583333333332 0.9680616666666666 0.2301633333333333
0.3180533333333332 0.9584766666666665 0.2618533333333333
0.3464183333333332 0.9725866666666666 0.2507833333333332
0.3802883333333333 0.7605766666666666 0.0805933333333333
0.3810983333333333 0.7621966666666666 0.0570033333333333
0.3955733333333333 0.7911466666666667 0.0462133333333333
0.4241233333333333 0.8482466666666666 0.0483733333333333
0.4367483333333333 0.8735016666666665 0.0612433333333333
0.4503283333333333 0.9006566666666665 0.0996733333333333
0.4503383333333333 0.9006766666666667 0.1246033333333333
0.4355133333333333 0.8710266666666665 0.1347933333333333
0.4059483333333333 0.8118966666666666 0.1333333333333333
0.3932383333333332 0.7864766666666665 0.1202633333333333
0.3937483333333333 0.7874966666666666 0.0944433333333333
0.4083683333333333 0.8167366666666667 0.0831133333333333
0.4084833333333333 0.8169666666666665 0.0596233333333333
0.4367883333333333 0.8735766666666667 0.0860933333333333
0.4225683333333333 0.8451366666666666 0.0976733333333333
0.4217683333333334 0.8435366666666666 0.1215533333333333
0.3670083333333333 0.7340166666666667 0.0417333333333333
0.4644533333333333 0.9289066666666665 0.1389733333333333
0.1190433333333333 0.8809566666666665 0.2870333333333333
0.0917883333333333 0.9082116666666665 0.2621933333333333
0.0762283333333333 0.9237716666666665 0.2485033333333332
0.0492883333333333 0.9507116666666666 0.2230133333333333
0.1343733333333334 0.8656266666666667 0.3010233333333333
0.0341733333333333 0.9658266666666666 0.2089833333333333
0.0878683333333333 0.8635966666666667 0.2812133333333333
0.0736283333333333 0.8768966666666665 0.2687933333333333
0.0449683333333334 0.9055316666666666 0.2426133333333333
0.0319383333333333 0.9197966666666666 0.2301633333333333
0.0415233333333333 0.8595766666666667 0.2618533333333333
0.0274133333333333 0.8738316666666666 0.2507833333333332
0.2394233333333333 0.6197116666666667 0.0805933333333333
0.2378033333333333 0.6189016666666666 0.0570033333333333
0.2088533333333333 0.6044266666666666 0.0462133333333333
0.1517533333333334 0.5758766666666667 0.0483733333333333
0.1264983333333334 0.5632466666666667 0.0612433333333333
0.0993433333333334 0.5496716666666667 0.0996733333333333
0.0993233333333332 0.5496616666666667 0.1246033333333333
0.1289733333333334 0.5644866666666667 0.1347933333333333
0.1881033333333333 0.5940516666666665 0.1333333333333333
0.2135233333333332 0.6067616666666666 0.1202633333333333
0.2125033333333333 0.6062516666666665 0.0944433333333333
0.1832633333333334 0.5916316666666666 0.0831133333333333
0.1830333333333334 0.5915166666666667 0.0596233333333333
0.1264233333333333 0.5632116666666667 0.0860933333333333
0.1548633333333334 0.5774316666666667 0.0976733333333333
0.1564633333333333 0.5782316666666667 0.1215533333333333
0.2659833333333332 0.6329916666666666 0.0417333333333333
0.0710933333333333 0.5355466666666666 0.1389733333333333
0.1190433333333333 0.7380866666666667 0.2870333333333333
0.0917883333333333 0.6835766666666666 0.2621933333333333
0.0762283333333333 0.6524566666666666 0.2485033333333332
0.0492883333333333 0.5985766666666666 0.2230133333333333
0.1343733333333334 0.7687466666666667 0.3010233333333333
0.0341733333333333 0.5683466666666667 0.2089833333333333
0.1364033333333333 0.7242716666666665 0.2812133333333333
0.1231033333333333 0.6967316666666666 0.2687933333333333
0.0944683333333334 0.6394366666666667 0.2426133333333333
0.0802033333333334 0.6121416666666667 0.2301633333333333
0.1404233333333334 0.6819466666666667 0.2618533333333333
0.1261683333333333 0.6535816666666667 0.2507833333333332
0.0878683333333333 0.7242716666666665 0.2812133333333333
0.0736283333333333 0.6967316666666666 0.2687933333333333
0.0449683333333333 0.6394366666666667 0.2426133333333333
0.0319383333333333 0.6121416666666667 0.2301633333333333
0.0415233333333333 0.6819466666666667 0.2618533333333333
0.0274133333333333 0.6535816666666667 0.2507833333333332
0.2757283333333333 0.8635966666666667 0.2812133333333333
0.3032683333333332 0.8768966666666665 0.2687933333333333
0.3605633333333333 0.9055316666666666 0.2426133333333333
0.3878583333333332 0.9197966666666666 0.2301633333333333
0.3180533333333332 0.8595766666666667 0.2618533333333333
0.3464183333333333 0.8738316666666666 0.2507833333333332
0.1364033333333334 0.9121316666666667 0.2812133333333333
0.1231033333333333 0.9263716666666667 0.2687933333333333
0.0944683333333334 0.9550316666666665 0.2426133333333333
0.0802033333333334 0.9680616666666666 0.2301633333333333
0.1404233333333333 0.9584766666666665 0.2618533333333333
0.1261683333333333 0.9725866666666666 0.2507833333333332
0.3909383333333333 0.9212016666666667 0.3854533333333333
0.3633983333333333 0.9069616666666666 0.3978733333333332
0.3061033333333334 0.8783016666666665 0.4240533333333332
0.2788083333333333 0.8652716666666664 0.4365033333333332
0.3486133333333333 0.8748566666666665 0.4048133333333332
0.3202483333333332 0.8607466666666664 0.4158833333333333
0.0787983333333333 0.9697366666666667 0.3854533333333333
0.0930383333333333 0.9564366666666665 0.3978733333333332
0.1216983333333332 0.9278016666666664 0.4240533333333332
0.1347283333333333 0.9135366666666666 0.4365033333333332
0.1251433333333334 0.9737566666666666 0.4048133333333332
0.1392533333333333 0.9595016666666665 0.4158833333333333
0.0302633333333334 0.6090616666666666 0.3854533333333333
0.0435633333333333 0.6366016666666665 0.3978733333333332
0.0721983333333334 0.6938966666666665 0.4240533333333332
0.0864633333333333 0.7211916666666666 0.4365033333333332
0.0262433333333334 0.6513866666666666 0.4048133333333332
0.0404983333333333 0.6797516666666665 0.4158833333333333
0.1197116666666667 0.8802883333333335 0.9194066666666666
0.1189016666666668 0.8810983333333333 0.9429966666666666
0.1044266666666667 0.8955733333333333 0.9537866666666664
0.0758766666666667 0.9241233333333333 0.9516266666666664
0.0632516666666668 0.9367533333333333 0.9387566666666666
0.0496716666666668 0.9503283333333334 0.9003266666666665
0.0496616666666666 0.9503383333333333 0.8753966666666665
0.0644866666666667 0.9355133333333333 0.8652066666666666
0.0940516666666667 0.9059483333333334 0.8666666666666666
0.1067616666666667 0.8932383333333334 0.8797366666666665
0.1062516666666668 0.8937483333333334 0.9055566666666663
0.0916316666666667 0.9083683333333333 0.9168866666666665
0.0915166666666668 0.9084833333333334 0.9403766666666664
0.0632116666666667 0.9367883333333332 0.9139066666666665
0.0774316666666668 0.9225683333333333 0.9023266666666664
0.0782316666666667 0.9217683333333333 0.8784466666666665
0.1329916666666667 0.8670083333333334 0.9582666666666665
0.0355466666666667 0.9644533333333333 0.8610266666666665
0.3809566666666666 0.7619133333333333 0.7129666666666665
0.4082116666666666 0.8164233333333333 0.7378066666666665
0.4237716666666667 0.8475433333333333 0.7514966666666664
0.4507116666666666 0.9014233333333331 0.7769866666666664
0.3656266666666665 0.7312533333333332 0.6989766666666665
0.4658266666666666 0.9316533333333334 0.7910166666666665
0.4121316666666667 0.7757283333333334 0.7187866666666666
0.4263716666666667 0.8032683333333334 0.7312066666666666
0.4550316666666667 0.8605633333333335 0.7573866666666665
0.4680616666666667 0.8878583333333333 0.7698366666666665
0.4584766666666666 0.8180533333333333 0.7381466666666664
0.4725866666666667 0.8464183333333333 0.7492166666666665
0.1197116666666667 0.7394233333333333 0.9194066666666666
0.1189016666666667 0.7378033333333334 0.9429966666666666
0.1044266666666667 0.7088533333333333 0.9537866666666664
0.0758766666666667 0.6517533333333334 0.9516266666666664
0.0632466666666667 0.6264983333333334 0.9387566666666666
0.0496716666666667 0.5993433333333333 0.9003266666666665
0.0496616666666667 0.5993233333333332 0.8753966666666665
0.0644866666666666 0.6289733333333333 0.8652066666666666
0.0940516666666667 0.6881033333333332 0.8666666666666666
0.1067616666666666 0.7135233333333332 0.8797366666666665
0.1062516666666667 0.7125033333333333 0.9055566666666663
0.0916316666666667 0.6832633333333333 0.9168866666666665
0.0915166666666668 0.6830333333333334 0.9403766666666664
0.0632116666666667 0.6264233333333333 0.9139066666666665
0.0774316666666667 0.6548633333333334 0.9023266666666664
0.0782316666666667 0.6564633333333334 0.8784466666666665
0.1329916666666667 0.7659833333333332 0.9582666666666665
0.0355466666666667 0.5710933333333333 0.8610266666666665
0.2380866666666667 0.6190433333333333 0.7129666666666665
0.1835766666666666 0.5917883333333334 0.7378066666666665
0.1524566666666667 0.5762283333333332 0.7514966666666664
0.0985766666666666 0.5492883333333334 0.7769866666666664
0.2687466666666667 0.6343733333333332 0.6989766666666665
0.0683466666666667 0.5341733333333333 0.7910166666666665
0.2242716666666666 0.6364033333333332 0.7187866666666666
0.1967316666666666 0.6231033333333332 0.7312066666666666
0.1394366666666667 0.5944683333333334 0.7573866666666665
0.1121416666666667 0.5802033333333333 0.7698366666666665
0.1819466666666667 0.6404233333333333 0.7381466666666664
0.1535816666666667 0.6261683333333332 0.7492166666666665
0.2605766666666667 0.8802883333333335 0.9194066666666666
0.2621966666666667 0.8810983333333333 0.9429966666666666
0.2911466666666667 0.8955733333333333 0.9537866666666664
0.3482466666666666 0.9241233333333333 0.9516266666666664
0.3735016666666666 0.9367483333333333 0.9387566666666666
0.4006566666666667 0.9503283333333334 0.9003266666666665
0.4006766666666666 0.9503383333333333 0.8753966666666665
0.3710266666666666 0.9355133333333333 0.8652066666666666
0.3118966666666665 0.9059483333333334 0.8666666666666666
0.2864766666666666 0.8932383333333334 0.8797366666666665
0.2874966666666667 0.8937483333333334 0.9055566666666663
0.3167366666666667 0.9083683333333333 0.9168866666666665
0.3169666666666667 0.9084833333333334 0.9403766666666664
0.3735766666666667 0.9367883333333332 0.9139066666666665
0.3451366666666668 0.9225683333333333 0.9023266666666664
0.3435366666666666 0.9217683333333333 0.8784466666666665
0.2340166666666667 0.8670083333333334 0.9582666666666665
0.4289066666666667 0.9644533333333333 0.8610266666666665
0.3809566666666666 0.6190433333333333 0.7129666666666665
0.4082116666666666 0.5917883333333334 0.7378066666666665
0.4237716666666666 0.5762283333333332 0.7514966666666664
0.4507116666666666 0.5492883333333334 0.7769866666666664
0.3656266666666666 0.6343733333333332 0.6989766666666665
0.4658266666666667 0.5341733333333333 0.7910166666666665
0.3635966666666666 0.5878683333333332 0.7187866666666666
0.3768966666666666 0.5736283333333332 0.7312066666666666
0.4055316666666666 0.5449683333333332 0.7573866666666665
0.4197966666666665 0.5319383333333332 0.7698366666666665
0.3595766666666666 0.5415233333333334 0.7381466666666664
0.3738316666666666 0.5274133333333332 0.7492166666666665
0.2136216666666667 0.7863783333333332 0.4139266666666666
0.2144316666666666 0.7855683333333333 0.3903366666666666
0.2289066666666666 0.7710933333333333 0.3795466666666666
0.2574566666666667 0.7425433333333333 0.3817066666666666
0.2700866666666666 0.7299183333333334 0.3945766666666666
0.2836616666666667 0.7163383333333333 0.4330066666666665
0.2836716666666667 0.7163283333333331 0.4579366666666666
0.2688466666666667 0.7311533333333333 0.4681266666666665
0.2392816666666666 0.7607183333333333 0.4666666666666666
0.2265716666666666 0.7734283333333332 0.4535966666666666
0.2270816666666666 0.7729183333333332 0.4277766666666665
0.2417016666666666 0.7582983333333331 0.4164466666666666
0.2418166666666667 0.7581833333333333 0.3929566666666666
0.2701216666666666 0.7298783333333332 0.4194266666666666
0.2559016666666667 0.7440983333333333 0.4310066666666665
0.2551016666666666 0.7448983333333332 0.4548866666666666
0.2003416666666666 0.7996583333333332 0.3750666666666665
0.2977866666666666 0.7022133333333332 0.4723066666666665
0.0952466666666667 0.5476233333333334 0.6203666666666665
0.1497566666666666 0.5748783333333334 0.5955266666666665
0.1808766666666667 0.5904383333333333 0.5818366666666666
0.2347566666666667 0.6173783333333334 0.5563466666666665
0.0645866666666667 0.5322933333333333 0.6343566666666666
0.2649866666666667 0.6324933333333332 0.5423166666666666
0.1090616666666666 0.5787983333333332 0.6145466666666665
0.1366016666666666 0.5930383333333333 0.6021266666666665
0.1938966666666666 0.6216983333333331 0.5759466666666665
0.2211916666666666 0.6347283333333332 0.5634966666666665
0.1513866666666667 0.6251433333333334 0.5951866666666666
0.1797516666666666 0.6392533333333333 0.5841166666666665
0.2136216666666667 0.9272433333333332 0.4139266666666666
0.2144316666666667 0.9288633333333334 0.3903366666666666
0.2289066666666667 0.9578133333333334 0.3795466666666666
0.2574566666666667 0.5149133333333334 0.3817066666666666
0.2700816666666667 0.5401683333333335 0.3945766666666666
0.2836616666666667 0.5673233333333334 0.4330066666666665
0.2836716666666667 0.5673433333333333 0.4579366666666666
0.2688466666666667 0.5376933333333334 0.4681266666666665
0.2392816666666666 0.9785633333333330 0.4666666666666666
0.2265716666666667 0.9531433333333331 0.4535966666666666
0.2270816666666665 0.9541633333333330 0.4277766666666665
0.2417016666666667 0.9834033333333333 0.4164466666666666
0.2418166666666666 0.9836333333333332 0.3929566666666666
0.2701216666666667 0.5402433333333333 0.4194266666666666
0.2559016666666667 0.5118033333333333 0.4310066666666665
0.2551016666666667 0.5102033333333333 0.4548866666666666
0.2003416666666666 0.9006833333333333 0.3750666666666665
0.2977866666666666 0.5955733333333332 0.4723066666666665
0.4523766666666666 0.5476233333333334 0.6203666666666665
0.4251216666666666 0.5748783333333334 0.5955266666666665
0.4095616666666667 0.5904383333333333 0.5818366666666666
0.3826216666666666 0.6173783333333334 0.5563466666666665
0.4677066666666666 0.5322933333333333 0.6343566666666666
0.3675066666666666 0.6324933333333332 0.5423166666666666
0.4212016666666666 0.5302633333333333 0.6145466666666665
0.4069616666666666 0.5435633333333333 0.6021266666666665
0.3783016666666666 0.5721983333333334 0.5759466666666665
0.3652716666666667 0.5864633333333332 0.5634966666666665
0.3748566666666665 0.5262433333333332 0.5951866666666666
0.3607466666666667 0.5404983333333333 0.5841166666666665
0.0727566666666666 0.7863783333333332 0.4139266666666666
0.0711366666666666 0.7855683333333333 0.3903366666666666
0.0421866666666666 0.7710933333333333 0.3795466666666666
0.4850866666666666 0.7425433333333333 0.3817066666666666
0.4598316666666667 0.7299133333333334 0.3945766666666666
0.4326766666666666 0.7163383333333333 0.4330066666666665
0.4326566666666666 0.7163283333333333 0.4579366666666666
0.4623066666666666 0.7311533333333333 0.4681266666666665
0.0214366666666667 0.7607183333333333 0.4666666666666666
0.0468566666666666 0.7734283333333332 0.4535966666666666
0.0458366666666666 0.7729183333333332 0.4277766666666665
0.0165966666666666 0.7582983333333331 0.4164466666666666
0.0163666666666667 0.7581833333333333 0.3929566666666666
0.4597566666666665 0.7298783333333332 0.4194266666666666
0.4881966666666667 0.7440983333333333 0.4310066666666665
0.4897966666666666 0.7448983333333332 0.4548866666666666
0.0993166666666666 0.7996583333333332 0.3750666666666665
0.4044266666666666 0.7022133333333332 0.4723066666666665
0.4523766666666666 0.9047533333333333 0.6203666666666665
0.4251216666666666 0.8502433333333332 0.5955266666666665
0.4095616666666666 0.8191233333333332 0.5818366666666666
0.3826216666666665 0.7652433333333331 0.5563466666666665
0.4677066666666666 0.9354133333333332 0.6343566666666666
0.3675066666666666 0.7350133333333333 0.5423166666666666
0.4697366666666667 0.8909383333333334 0.6145466666666665
0.4564366666666667 0.8633983333333333 0.6021266666666665
0.4278016666666666 0.8061033333333333 0.5759466666666665
0.4135366666666666 0.7788083333333331 0.5634966666666665
0.4737566666666667 0.8486133333333334 0.5951866666666666
0.4595016666666667 0.8202483333333331 0.5841166666666665
0.4212016666666667 0.8909383333333334 0.6145466666666665
0.4069616666666667 0.8633983333333333 0.6021266666666665
0.3783016666666666 0.8061033333333333 0.5759466666666665
0.3652716666666666 0.7788083333333331 0.5634966666666665
0.3748566666666666 0.8486133333333334 0.5951866666666666
0.3607466666666667 0.8202483333333331 0.5841166666666665
0.1090616666666666 0.5302633333333333 0.6145466666666665
0.1366016666666666 0.5435633333333333 0.6021266666666665
0.1938966666666666 0.5721983333333334 0.5759466666666665
0.2211916666666666 0.5864633333333332 0.5634966666666665
0.1513866666666667 0.5262433333333332 0.5951866666666666
0.1797516666666666 0.5404983333333333 0.5841166666666665
0.4697366666666666 0.5787983333333332 0.6145466666666665
0.4564366666666666 0.5930383333333333 0.6021266666666665
0.4278016666666666 0.6216983333333331 0.5759466666666665
0.4135366666666666 0.6347283333333332 0.5634966666666665
0.4737566666666667 0.6251433333333334 0.5951866666666666
0.4595016666666667 0.6392533333333333 0.5841166666666665
0.2242716666666666 0.5878683333333332 0.7187866666666666
0.1967316666666666 0.5736283333333332 0.7312066666666666
0.1394366666666667 0.5449683333333332 0.7573866666666665
0.1121416666666667 0.5319383333333332 0.7698366666666665
0.1819466666666667 0.5415233333333334 0.7381466666666664
0.1535816666666667 0.5274133333333332 0.7492166666666665
0.4121316666666666 0.6364033333333332 0.7187866666666666
0.4263716666666666 0.6231033333333332 0.7312066666666666
0.4550316666666666 0.5944683333333334 0.7573866666666665
0.4680616666666667 0.5802033333333333 0.7698366666666665
0.4584766666666666 0.6404233333333333 0.7381466666666664
0.4725866666666667 0.6261683333333332 0.7492166666666665
0.3635966666666667 0.7757283333333334 0.7187866666666666
0.3768966666666667 0.8032683333333334 0.7312066666666666
0.4055316666666667 0.8605633333333335 0.7573866666666665
0.4197966666666666 0.8878583333333333 0.7698366666666665
0.3595766666666667 0.8180533333333333 0.7381466666666664
0.3738316666666667 0.8464183333333333 0.7492166666666665
0.9530449999999998 0.0469550000000000 0.2527400000000000
0.9522349999999998 0.0477650000000000 0.2763300000000000
0.9377599999999998 0.0622400000000000 0.2871199999999999
0.9092100000000000 0.0907900000000000 0.2849599999999999
0.8965849999999999 0.1034200000000000 0.2720899999999999
0.8830049999999999 0.1169950000000000 0.2336600000000000
0.8829949999999999 0.1170050000000000 0.2087300000000000
0.8978199999999998 0.1021800000000000 0.1985399999999999
0.9273849999999999 0.0726150000000000 0.2000000000000000
0.9400949999999998 0.0599050000000000 0.2130700000000000
0.9395849999999999 0.0604150000000000 0.2388900000000000
0.9249649999999999 0.0750350000000000 0.2502199999999999
0.9248499999999997 0.0751500000000000 0.2737100000000000
0.8965449999999998 0.1034550000000000 0.2472399999999999
0.9107649999999998 0.0892350000000000 0.2356600000000000
0.9115649999999997 0.0884350000000000 0.2117800000000000
0.9663249999999998 0.0336750000000000 0.2916000000000000
0.8688799999999999 0.1311200000000000 0.1943599999999999
0.7142899999999999 0.4285800000000000 0.0463000000000000
0.7415449999999999 0.4830900000000000 0.0711400000000000
0.7571049999999998 0.0142100000000000 0.0848300000000000
0.7840449999999999 0.0680900000000000 0.1103200000000000
0.6989599999999999 0.3979200000000000 0.0323100000000000
0.7991599999999998 0.0983200000000000 0.1243500000000000
0.7454649999999999 0.4423949999999999 0.0521200000000000
0.7597050000000000 0.4699349999999999 0.0645400000000000
0.7883649999999999 0.0272300000000000 0.0907200000000000
0.8013949999999999 0.0545250000000000 0.1031700000000000
0.7918099999999998 0.4847199999999999 0.0714800000000000
0.8059199999999999 0.0130850000000000 0.0825500000000000
0.9530449999999998 0.4060899999999998 0.2527400000000000
0.9522349999999998 0.4044699999999999 0.2763300000000000
0.9377599999999998 0.3755199999999999 0.2871199999999999
0.9092100000000000 0.3184200000000000 0.2849599999999999
0.8965799999999998 0.2931650000000000 0.2720899999999999
0.8830049999999999 0.2660099999999999 0.2336600000000000
0.8829949999999999 0.2659899999999999 0.2087300000000000
0.8978200000000000 0.2956400000000000 0.1985399999999999
0.9273849999999999 0.3547700000000000 0.2000000000000000
0.9400949999999999 0.3801900000000000 0.2130700000000000
0.9395849999999999 0.3791700000000000 0.2388900000000000
0.9249649999999999 0.3499300000000000 0.2502199999999999
0.9248499999999999 0.3497000000000000 0.2737100000000000
0.8965449999999997 0.2930899999999999 0.2472399999999999
0.9107649999999999 0.3215300000000000 0.2356600000000000
0.9115649999999997 0.3231300000000000 0.2117800000000000
0.9663249999999999 0.4326499999999999 0.2916000000000000
0.8688799999999999 0.2377600000000000 0.1943599999999999
0.5714199999999999 0.2857100000000000 0.0463000000000000
0.5169099999999999 0.2584550000000000 0.0711400000000000
0.9857899999999998 0.2428949999999999 0.0848300000000000
0.9319099999999999 0.2159550000000000 0.1103200000000000
0.6020799999999998 0.3010400000000000 0.0323100000000000
0.9016799999999998 0.2008399999999999 0.1243500000000000
0.5576049999999999 0.3030700000000000 0.0521200000000000
0.5300650000000000 0.2897700000000000 0.0645400000000000
0.9727699999999998 0.2611350000000000 0.0907200000000000
0.9454750000000000 0.2468700000000000 0.1031700000000000
0.5152799999999998 0.3070900000000000 0.0714800000000000
0.9869149999999999 0.2928350000000000 0.0825500000000000
0.5939099999999999 0.0469550000000000 0.2527400000000000
0.5955299999999999 0.0477650000000000 0.2763300000000000
0.6244799999999999 0.0622400000000000 0.2871199999999999
0.6815799999999999 0.0907900000000000 0.2849599999999999
0.7068349999999999 0.1034150000000000 0.2720899999999999
0.7339899999999999 0.1169950000000000 0.2336600000000000
0.7340099999999999 0.1170050000000000 0.2087300000000000
0.7043599999999999 0.1021800000000000 0.1985399999999999
0.6452299999999999 0.0726150000000000 0.2000000000000000
0.6198099999999999 0.0599050000000000 0.2130700000000000
0.6208299999999999 0.0604150000000000 0.2388900000000000
0.6500699999999999 0.0750350000000000 0.2502199999999999
0.6502999999999999 0.0751500000000000 0.2737100000000000
0.7069099999999999 0.1034550000000000 0.2472399999999999
0.6784699999999999 0.0892350000000000 0.2356600000000000
0.6768699999999999 0.0884350000000000 0.2117800000000000
0.5673500000000000 0.0336750000000000 0.2916000000000000
0.7622399999999999 0.1311200000000000 0.1943599999999999
0.7142899999999999 0.2857100000000000 0.0463000000000000
0.7415449999999999 0.2584550000000000 0.0711400000000000
0.7571049999999999 0.2428950000000000 0.0848300000000000
0.7840449999999999 0.2159550000000000 0.1103200000000000
0.6989599999999999 0.3010400000000000 0.0323100000000000
0.7991600000000000 0.2008400000000000 0.1243500000000000
0.6969299999999999 0.2545350000000000 0.0521200000000000
0.7102299999999998 0.2402950000000000 0.0645400000000000
0.7388649999999999 0.2116350000000000 0.0907200000000000
0.7531299999999997 0.1986049999999999 0.1031700000000000
0.6929099999999998 0.2081900000000000 0.0714800000000000
0.7071649999999999 0.1940799999999999 0.0825500000000000
0.5469549999999999 0.4530449999999999 0.7472599999999998
0.5477649999999999 0.4522349999999999 0.7236699999999999
0.5622399999999999 0.4377599999999999 0.7128799999999997
0.5907899999999999 0.4092100000000000 0.7150399999999999
0.6034199999999998 0.3965850000000000 0.7279099999999998
0.6169950000000000 0.3830049999999999 0.7663399999999999
0.6170049999999999 0.3829949999999999 0.7912699999999998
0.6021799999999999 0.3978200000000000 0.8014600000000000
0.5726150000000000 0.4273850000000000 0.7999999999999998
0.5599050000000000 0.4400950000000000 0.7869299999999998
0.5604149999999999 0.4395849999999999 0.7611099999999998
0.5750350000000000 0.4249649999999999 0.7497799999999999
0.5751499999999999 0.4248499999999999 0.7262899999999999
0.6034549999999999 0.3965450000000000 0.7527599999999999
0.5892349999999998 0.4107649999999999 0.7643399999999999
0.5884349999999999 0.4115650000000000 0.7882199999999999
0.5336749999999999 0.4663249999999999 0.7083999999999997
0.6311199999999999 0.3688800000000000 0.8056399999999999
0.9285799999999997 0.2142900000000000 0.9536999999999998
0.9830899999999998 0.2415450000000000 0.9288599999999999
0.5142100000000001 0.2571050000000000 0.9151699999999999
0.5680899999999999 0.2840450000000000 0.8896799999999999
0.8979199999999998 0.1989600000000000 0.9676899999999998
0.5983200000000000 0.2991600000000000 0.8756499999999998
0.9423949999999998 0.2454650000000000 0.9478799999999998
0.9699349999999998 0.2597050000000000 0.9354599999999997
0.5272299999999999 0.2883650000000000 0.9092799999999999
0.5545250000000000 0.3013950000000000 0.8968299999999999
0.9847199999999998 0.2918100000000000 0.9285199999999999
0.5130850000000000 0.3059200000000000 0.9174499999999999
0.5469550000000000 0.0939100000000000 0.7472599999999998
0.5477649999999999 0.0955300000000000 0.7236699999999999
0.5622400000000000 0.1244800000000000 0.7128799999999997
0.5907899999999999 0.1815800000000000 0.7150399999999999
0.6034149999999999 0.2068349999999999 0.7279099999999998
0.6169950000000000 0.2339900000000001 0.7663399999999999
0.6170050000000000 0.2340100000000000 0.7912699999999998
0.6021799999999999 0.2043600000000000 0.8014600000000000
0.5726149999999999 0.1452299999999999 0.7999999999999998
0.5599049999999999 0.1198100000000000 0.7869299999999998
0.5604149999999999 0.1208300000000000 0.7611099999999998
0.5750350000000000 0.1500700000000000 0.7497799999999999
0.5751499999999999 0.1503000000000000 0.7262899999999999
0.6034550000000000 0.2069100000000000 0.7527599999999999
0.5892350000000000 0.1784700000000000 0.7643399999999999
0.5884349999999999 0.1768699999999999 0.7882199999999999
0.5336749999999999 0.0673500000000000 0.7083999999999997
0.6311199999999999 0.2622400000000000 0.8056399999999999
0.7857099999999998 0.2142900000000000 0.9536999999999998
0.7584549999999999 0.2415450000000000 0.9288599999999999
0.7428950000000000 0.2571050000000000 0.9151699999999999
0.7159549999999999 0.2840450000000000 0.8896799999999999
0.8010399999999998 0.1989600000000000 0.9676899999999998
0.7008399999999999 0.2991600000000000 0.8756499999999998
0.7545349999999997 0.1969300000000000 0.9478799999999998
0.7402949999999998 0.2102299999999999 0.9354599999999997
0.7116349999999999 0.2388650000000000 0.9092799999999999
0.6986049999999998 0.2531300000000000 0.8968299999999999
0.7081899999999999 0.1929100000000000 0.9285199999999999
0.6940799999999999 0.2071649999999999 0.9174499999999999
0.9060899999999997 0.4530450000000000 0.7472599999999998
0.9044699999999998 0.4522349999999999 0.7236699999999999
0.8755199999999997 0.4377599999999999 0.7128799999999997
0.8184199999999999 0.4092100000000000 0.7150399999999999
0.7931649999999999 0.3965799999999999 0.7279099999999998
0.7660099999999999 0.3830049999999999 0.7663399999999999
0.7659899999999997 0.3829949999999999 0.7912699999999998
0.7956399999999999 0.3978200000000000 0.8014600000000000
0.8547699999999999 0.4273850000000000 0.7999999999999998
0.8801899999999998 0.4400950000000000 0.7869299999999998
0.8791699999999998 0.4395849999999999 0.7611099999999998
0.8499299999999999 0.4249649999999999 0.7497799999999999
0.8496999999999999 0.4248499999999999 0.7262899999999999
0.7930899999999999 0.3965450000000000 0.7527599999999999
0.8215299999999999 0.4107649999999999 0.7643399999999999
0.8231299999999999 0.4115650000000000 0.7882199999999999
0.9326499999999998 0.4663249999999999 0.7083999999999997
0.7377599999999999 0.3688800000000000 0.8056399999999999
0.7857099999999999 0.0714200000000000 0.9536999999999998
0.7584549999999999 0.0169100000000000 0.9288599999999999
0.7428950000000000 0.4857900000000001 0.9151699999999999
0.7159549999999999 0.4319100000000001 0.8896799999999999
0.8010399999999998 0.1020800000000000 0.9676899999999998
0.7008399999999998 0.4016799999999999 0.8756499999999998
0.8030699999999997 0.0576050000000000 0.9478799999999998
0.7897699999999999 0.0300650000000000 0.9354599999999997
0.7611349999999999 0.4727700000000001 0.9092799999999999
0.7468699999999999 0.4454750000000000 0.8968299999999999
0.8070899999999999 0.0152800000000000 0.9285199999999999
0.7928349999999998 0.4869150000000000 0.9174499999999999
0.7545349999999997 0.0576050000000000 0.9478799999999998
0.7402949999999997 0.0300650000000000 0.9354599999999997
0.7116350000000000 0.4727700000000001 0.9092799999999999
0.6986049999999998 0.4454750000000000 0.8968299999999999
0.7081899999999998 0.0152800000000000 0.9285199999999999
0.6940799999999999 0.4869150000000000 0.9174499999999999
0.9423949999999998 0.1969300000000000 0.9478799999999998
0.9699349999999998 0.2102299999999999 0.9354599999999997
0.5272300000000000 0.2388650000000000 0.9092799999999999
0.5545250000000000 0.2531300000000000 0.8968299999999999
0.9847199999999998 0.1929100000000000 0.9285199999999999
0.5130850000000000 0.2071649999999999 0.9174499999999999
0.8030699999999997 0.2454650000000000 0.9478799999999998
0.7897699999999999 0.2597050000000000 0.9354599999999997
0.7611349999999999 0.2883650000000000 0.9092799999999999
0.7468699999999999 0.3013950000000000 0.8968299999999999
0.8070900000000000 0.2918100000000000 0.9285199999999999
0.7928349999999998 0.3059200000000000 0.9174499999999999
0.5576049999999999 0.2545350000000000 0.0521200000000000
0.5300649999999999 0.2402950000000000 0.0645400000000000
0.9727699999999999 0.2116350000000000 0.0907200000000000
0.9454749999999998 0.1986049999999999 0.1031700000000000
0.5152799999999998 0.2081900000000000 0.0714800000000000
0.9869149999999999 0.1940799999999999 0.0825500000000000
0.7454649999999999 0.3030700000000000 0.0521200000000000
0.7597050000000000 0.2897700000000000 0.0645400000000000
0.7883649999999998 0.2611350000000000 0.0907200000000000
0.8013949999999999 0.2468700000000000 0.1031700000000000
0.7918099999999999 0.3070900000000000 0.0714800000000000
0.8059199999999997 0.2928350000000000 0.0825500000000000
0.6969299999999999 0.4423949999999999 0.0521200000000000
0.7102299999999998 0.4699349999999999 0.0645400000000000
0.7388649999999999 0.0272300000000000 0.0907200000000000
0.7531299999999999 0.0545250000000000 0.1031700000000000
0.6929099999999997 0.4847199999999999 0.0714800000000000
0.7071649999999999 0.0130850000000000 0.0825500000000000
0.7863783333333332 0.2136216666666667 0.5860733333333333
0.7855683333333332 0.2144316666666667 0.6096633333333332
0.7710933333333331 0.2289066666666666 0.6204533333333332
0.7425433333333332 0.2574566666666666 0.6182933333333333
0.7299183333333332 0.2700866666666666 0.6054233333333332
0.7163383333333332 0.2836616666666667 0.5669933333333332
0.7163283333333331 0.2836716666666667 0.5420633333333332
0.7311533333333332 0.2688466666666667 0.5318733333333332
0.7607183333333333 0.2392816666666667 0.5333333333333332
0.7734283333333332 0.2265716666666667 0.5464033333333332
0.7729183333333333 0.2270816666666667 0.5722233333333332
0.7582983333333332 0.2417016666666666 0.5835533333333333
0.7581833333333332 0.2418166666666667 0.6070433333333333
0.7298783333333332 0.2701216666666666 0.5805733333333332
0.7440983333333332 0.2559016666666666 0.5689933333333332
0.7448983333333332 0.2551016666666667 0.5451133333333332
0.7996583333333331 0.2003416666666666 0.6249333333333332
0.7022133333333332 0.2977866666666666 0.5276933333333332
0.5476233333333332 0.0952466666666667 0.3796333333333333
0.5748783333333332 0.1497566666666666 0.4044733333333332
0.5904383333333332 0.1808766666666667 0.4181633333333333
0.6173783333333333 0.2347566666666667 0.4436533333333333
0.5322933333333332 0.0645866666666667 0.3656433333333333
0.6324933333333332 0.2649866666666666 0.4576833333333333
0.5787983333333332 0.1090616666666666 0.3854533333333333
0.5930383333333331 0.1366016666666666 0.3978733333333332
0.6216983333333330 0.1938966666666666 0.4240533333333332
0.6347283333333331 0.2211916666666666 0.4365033333333332
0.6251433333333332 0.1513866666666667 0.4048133333333332
0.6392533333333331 0.1797516666666666 0.4158833333333333
0.7863783333333332 0.0727566666666666 0.5860733333333333
0.7855683333333332 0.0711366666666666 0.6096633333333332
0.7710933333333332 0.0421866666666666 0.6204533333333332
0.7425433333333332 0.4850866666666666 0.6182933333333333
0.7299133333333332 0.4598316666666666 0.6054233333333332
0.7163383333333332 0.4326766666666666 0.5669933333333332
0.7163283333333332 0.4326566666666666 0.5420633333333332
0.7311533333333332 0.4623066666666666 0.5318733333333332
0.7607183333333332 0.0214366666666667 0.5333333333333332
0.7734283333333332 0.0468566666666667 0.5464033333333332
0.7729183333333332 0.0458366666666666 0.5722233333333332
0.7582983333333332 0.0165966666666666 0.5835533333333333
0.7581833333333332 0.0163666666666666 0.6070433333333333
0.7298783333333332 0.4597566666666666 0.5805733333333332
0.7440983333333332 0.4881966666666667 0.5689933333333332
0.7448983333333332 0.4897966666666667 0.5451133333333332
0.7996583333333331 0.0993166666666666 0.6249333333333332
0.7022133333333332 0.4044266666666667 0.5276933333333332
0.9047533333333332 0.4523766666666666 0.3796333333333333
0.8502433333333330 0.4251216666666666 0.4044733333333332
0.8191233333333331 0.4095616666666666 0.4181633333333333
0.7652433333333331 0.3826216666666666 0.4436533333333333
0.9354133333333332 0.4677066666666666 0.3656433333333333
0.7350133333333331 0.3675066666666666 0.4576833333333333
0.8909383333333333 0.4697366666666667 0.3854533333333333
0.8633983333333330 0.4564366666666667 0.3978733333333332
0.8061033333333332 0.4278016666666666 0.4240533333333332
0.7788083333333331 0.4135366666666667 0.4365033333333332
0.8486133333333331 0.4737566666666667 0.4048133333333332
0.8202483333333330 0.4595016666666667 0.4158833333333333
0.9272433333333332 0.2136216666666667 0.5860733333333333
0.9288633333333332 0.2144316666666667 0.6096633333333332
0.9578133333333332 0.2289066666666667 0.6204533333333332
0.5149133333333333 0.2574566666666666 0.6182933333333333
0.5401683333333334 0.2700816666666667 0.6054233333333332
0.5673233333333333 0.2836616666666667 0.5669933333333332
0.5673433333333332 0.2836716666666667 0.5420633333333332
0.5376933333333332 0.2688466666666667 0.5318733333333332
0.9785633333333330 0.2392816666666666 0.5333333333333332
0.9531433333333330 0.2265716666666666 0.5464033333333332
0.9541633333333330 0.2270816666666666 0.5722233333333332
0.9834033333333332 0.2417016666666667 0.5835533333333333
0.9836333333333331 0.2418166666666667 0.6070433333333333
0.5402433333333333 0.2701216666666667 0.5805733333333332
0.5118033333333333 0.2559016666666667 0.5689933333333332
0.5102033333333332 0.2551016666666667 0.5451133333333332
0.9006833333333331 0.2003416666666666 0.6249333333333332
0.5955733333333332 0.2977866666666666 0.5276933333333332
0.5476233333333334 0.4523766666666666 0.3796333333333333
0.5748783333333332 0.4251216666666666 0.4044733333333332
0.5904383333333333 0.4095616666666667 0.4181633333333333
0.6173783333333331 0.3826216666666666 0.4436533333333333
0.5322933333333333 0.4677066666666666 0.3656433333333333
0.6324933333333331 0.3675066666666666 0.4576833333333333
0.5302633333333333 0.4212016666666668 0.3854533333333333
0.5435633333333332 0.4069616666666667 0.3978733333333332
0.5721983333333333 0.3783016666666666 0.4240533333333332
0.5864633333333332 0.3652716666666666 0.4365033333333332
0.5262433333333332 0.3748566666666666 0.4048133333333332
0.5404983333333332 0.3607466666666667 0.4158833333333333
0.8802883333333332 0.1197116666666667 0.0805933333333333
0.8810983333333331 0.1189016666666667 0.0570033333333333
0.8955733333333331 0.1044266666666667 0.0462133333333333
0.9241233333333332 0.0758766666666667 0.0483733333333333
0.9367533333333331 0.0632516666666667 0.0612433333333333
0.9503283333333331 0.0496716666666667 0.0996733333333333
0.9503383333333331 0.0496616666666666 0.1246033333333333
0.9355133333333332 0.0644866666666667 0.1347933333333333
0.9059483333333332 0.0940516666666666 0.1333333333333333
0.8932383333333332 0.1067616666666666 0.1202633333333333
0.8937483333333331 0.1062516666666666 0.0944433333333333
0.9083683333333331 0.0916316666666667 0.0831133333333333
0.9084833333333332 0.0915166666666667 0.0596233333333333
0.9367883333333331 0.0632116666666667 0.0860933333333333
0.9225683333333331 0.0774316666666667 0.0976733333333333
0.9217683333333332 0.0782316666666667 0.1215533333333333
0.8670083333333333 0.1329916666666666 0.0417333333333333
0.9644533333333332 0.0355466666666666 0.1389733333333333
0.7619133333333332 0.3809566666666666 0.2870333333333333
0.8164233333333332 0.4082116666666665 0.2621933333333333
0.8475433333333332 0.4237716666666666 0.2485033333333332
0.9014233333333332 0.4507116666666665 0.2230133333333333
0.7312533333333332 0.3656266666666666 0.3010233333333333
0.9316533333333332 0.4658266666666666 0.2089833333333333
0.7757283333333332 0.4121316666666666 0.2812133333333333
0.8032683333333331 0.4263716666666666 0.2687933333333333
0.8605633333333332 0.4550316666666666 0.2426133333333333
0.8878583333333332 0.4680616666666667 0.2301633333333333
0.8180533333333332 0.4584766666666665 0.2618533333333333
0.8464183333333332 0.4725866666666667 0.2507833333333332
0.8802883333333332 0.2605766666666666 0.0805933333333333
0.8810983333333332 0.2621966666666666 0.0570033333333333
0.8955733333333332 0.2911466666666667 0.0462133333333333
0.9241233333333332 0.3482466666666666 0.0483733333333333
0.9367483333333331 0.3735016666666666 0.0612433333333333
0.9503283333333332 0.4006566666666667 0.0996733333333333
0.9503383333333332 0.4006766666666667 0.1246033333333333
0.9355133333333332 0.3710266666666666 0.1347933333333333
0.9059483333333331 0.3118966666666665 0.1333333333333333
0.8932383333333332 0.2864766666666666 0.1202633333333333
0.8937483333333331 0.2874966666666666 0.0944433333333333
0.9083683333333332 0.3167366666666667 0.0831133333333333
0.9084833333333332 0.3169666666666666 0.0596233333333333
0.9367883333333332 0.3735766666666667 0.0860933333333333
0.9225683333333332 0.3451366666666666 0.0976733333333333
0.9217683333333332 0.3435366666666666 0.1215533333333333
0.8670083333333333 0.2340166666666667 0.0417333333333333
0.9644533333333332 0.4289066666666666 0.1389733333333333
0.6190433333333332 0.3809566666666666 0.2870333333333333
0.5917883333333332 0.4082116666666665 0.2621933333333333
0.5762283333333333 0.4237716666666666 0.2485033333333332
0.5492883333333333 0.4507116666666665 0.2230133333333333
0.6343733333333332 0.3656266666666666 0.3010233333333333
0.5341733333333333 0.4658266666666666 0.2089833333333333
0.5878683333333332 0.3635966666666666 0.2812133333333333
0.5736283333333332 0.3768966666666666 0.2687933333333333
0.5449683333333332 0.4055316666666665 0.2426133333333333
0.5319383333333333 0.4197966666666665 0.2301633333333333
0.5415233333333334 0.3595766666666667 0.2618533333333333
0.5274133333333332 0.3738316666666666 0.2507833333333332
0.7394233333333333 0.1197116666666667 0.0805933333333333
0.7378033333333333 0.1189016666666666 0.0570033333333333
0.7088533333333332 0.1044266666666667 0.0462133333333333
0.6517533333333333 0.0758766666666667 0.0483733333333333
0.6264983333333333 0.0632466666666667 0.0612433333333333
0.5993433333333332 0.0496716666666666 0.0996733333333333
0.5993233333333331 0.0496616666666667 0.1246033333333333
0.6289733333333333 0.0644866666666667 0.1347933333333333
0.6881033333333332 0.0940516666666667 0.1333333333333333
0.7135233333333331 0.1067616666666666 0.1202633333333333
0.7125033333333332 0.1062516666666667 0.0944433333333333
0.6832633333333332 0.0916316666666666 0.0831133333333333
0.6830333333333333 0.0915166666666667 0.0596233333333333
0.6264233333333332 0.0632116666666666 0.0860933333333333
0.6548633333333332 0.0774316666666666 0.0976733333333333
0.6564633333333333 0.0782316666666667 0.1215533333333333
0.7659833333333330 0.1329916666666666 0.0417333333333333
0.5710933333333332 0.0355466666666667 0.1389733333333333
0.6190433333333332 0.2380866666666667 0.2870333333333333
0.5917883333333332 0.1835766666666666 0.2621933333333333
0.5762283333333333 0.1524566666666667 0.2485033333333332
0.5492883333333333 0.0985766666666667 0.2230133333333333
0.6343733333333333 0.2687466666666667 0.3010233333333333
0.5341733333333332 0.0683466666666667 0.2089833333333333
0.6364033333333332 0.2242716666666666 0.2812133333333333
0.6231033333333332 0.1967316666666666 0.2687933333333333
0.5944683333333333 0.1394366666666667 0.2426133333333333
0.5802033333333333 0.1121416666666667 0.2301633333333333
0.6404233333333333 0.1819466666666667 0.2618533333333333
0.6261683333333332 0.1535816666666667 0.2507833333333332
0.5878683333333333 0.2242716666666666 0.2812133333333333
0.5736283333333332 0.1967316666666666 0.2687933333333333
0.5449683333333332 0.1394366666666667 0.2426133333333333
0.5319383333333333 0.1121416666666667 0.2301633333333333
0.5415233333333332 0.1819466666666667 0.2618533333333333
0.5274133333333332 0.1535816666666667 0.2507833333333332
0.7757283333333332 0.3635966666666666 0.2812133333333333
0.8032683333333331 0.3768966666666666 0.2687933333333333
0.8605633333333332 0.4055316666666665 0.2426133333333333
0.8878583333333332 0.4197966666666665 0.2301633333333333
0.8180533333333332 0.3595766666666667 0.2618533333333333
0.8464183333333331 0.3738316666666666 0.2507833333333332
0.6364033333333332 0.4121316666666666 0.2812133333333333
0.6231033333333332 0.4263716666666666 0.2687933333333333
0.5944683333333333 0.4550316666666666 0.2426133333333333
0.5802033333333334 0.4680616666666667 0.2301633333333333
0.6404233333333332 0.4584766666666665 0.2618533333333333
0.6261683333333332 0.4725866666666667 0.2507833333333332
0.8909383333333333 0.4212016666666668 0.3854533333333333
0.8633983333333330 0.4069616666666667 0.3978733333333332
0.8061033333333332 0.3783016666666666 0.4240533333333332
0.7788083333333331 0.3652716666666666 0.4365033333333332
0.8486133333333331 0.3748566666666666 0.4048133333333332
0.8202483333333330 0.3607466666666667 0.4158833333333333
0.5787983333333333 0.4697366666666667 0.3854533333333333
0.5930383333333331 0.4564366666666667 0.3978733333333332
0.6216983333333330 0.4278016666666666 0.4240533333333332
0.6347283333333331 0.4135366666666667 0.4365033333333332
0.6251433333333333 0.4737566666666667 0.4048133333333332
0.6392533333333332 0.4595016666666667 0.4158833333333333
0.5302633333333332 0.1090616666666666 0.3854533333333333
0.5435633333333331 0.1366016666666666 0.3978733333333332
0.5721983333333331 0.1938966666666666 0.4240533333333332
0.5864633333333331 0.2211916666666666 0.4365033333333332
0.5262433333333331 0.1513866666666667 0.4048133333333332
0.5404983333333332 0.1797516666666666 0.4158833333333333
0.6197116666666667 0.3802883333333333 0.9194066666666666
0.6189016666666667 0.3810983333333334 0.9429966666666666
0.6044266666666667 0.3955733333333334 0.9537866666666664
0.5758766666666667 0.4241233333333334 0.9516266666666664
0.5632516666666667 0.4367533333333333 0.9387566666666666
0.5496716666666667 0.4503283333333333 0.9003266666666665
0.5496616666666665 0.4503383333333332 0.8753966666666665
0.5644866666666666 0.4355133333333333 0.8652066666666666
0.5940516666666665 0.4059483333333332 0.8666666666666666
0.6067616666666665 0.3932383333333332 0.8797366666666665
0.6062516666666666 0.3937483333333334 0.9055566666666663
0.5916316666666666 0.4083683333333334 0.9168866666666665
0.5915166666666666 0.4084833333333333 0.9403766666666664
0.5632116666666667 0.4367883333333334 0.9139066666666665
0.5774316666666667 0.4225683333333334 0.9023266666666664
0.5782316666666666 0.4217683333333333 0.8784466666666665
0.6329916666666666 0.3670083333333333 0.9582666666666665
0.5355466666666665 0.4644533333333333 0.8610266666666665
0.8809566666666664 0.2619133333333333 0.7129666666666665
0.9082116666666664 0.3164233333333333 0.7378066666666665
0.9237716666666664 0.3475433333333333 0.7514966666666664
0.9507116666666665 0.4014233333333333 0.7769866666666664
0.8656266666666664 0.2312533333333333 0.6989766666666665
0.9658266666666664 0.4316533333333333 0.7910166666666665
0.9121316666666666 0.2757283333333333 0.7187866666666666
0.9263716666666665 0.3032683333333332 0.7312066666666666
0.9550316666666664 0.3605633333333333 0.7573866666666665
0.9680616666666665 0.3878583333333332 0.7698366666666665
0.9584766666666665 0.3180533333333333 0.7381466666666664
0.9725866666666665 0.3464183333333333 0.7492166666666665
0.6197116666666665 0.2394233333333333 0.9194066666666666
0.6189016666666667 0.2378033333333333 0.9429966666666666
0.6044266666666667 0.2088533333333333 0.9537866666666664
0.5758766666666666 0.1517533333333334 0.9516266666666664
0.5632466666666666 0.1264983333333334 0.9387566666666666
0.5496716666666666 0.0993433333333333 0.9003266666666665
0.5496616666666667 0.0993233333333332 0.8753966666666665
0.5644866666666666 0.1289733333333334 0.8652066666666666
0.5940516666666665 0.1881033333333333 0.8666666666666666
0.6067616666666665 0.2135233333333333 0.8797366666666665
0.6062516666666665 0.2125033333333332 0.9055566666666663
0.5916316666666666 0.1832633333333333 0.9168866666666665
0.5915166666666666 0.1830333333333334 0.9403766666666664
0.5632116666666666 0.1264233333333333 0.9139066666666665
0.5774316666666666 0.1548633333333333 0.9023266666666664
0.5782316666666666 0.1564633333333334 0.8784466666666665
0.6329916666666666 0.2659833333333332 0.9582666666666665
0.5355466666666665 0.0710933333333333 0.8610266666666665
0.7380866666666664 0.1190433333333333 0.7129666666666665
0.6835766666666665 0.0917883333333333 0.7378066666666665
0.6524566666666666 0.0762283333333333 0.7514966666666664
0.5985766666666665 0.0492883333333334 0.7769866666666664
0.7687466666666666 0.1343733333333333 0.6989766666666665
0.5683466666666666 0.0341733333333333 0.7910166666666665
0.7242716666666664 0.1364033333333333 0.7187866666666666
0.6967316666666665 0.1231033333333333 0.7312066666666666
0.6394366666666665 0.0944683333333334 0.7573866666666665
0.6121416666666666 0.0802033333333334 0.7698366666666665
0.6819466666666666 0.1404233333333333 0.7381466666666664
0.6535816666666666 0.1261683333333333 0.7492166666666665
0.7605766666666666 0.3802883333333333 0.9194066666666666
0.7621966666666665 0.3810983333333334 0.9429966666666666
0.7911466666666667 0.3955733333333334 0.9537866666666664
0.8482466666666665 0.4241233333333334 0.9516266666666664
0.8735016666666664 0.4367483333333333 0.9387566666666666
0.9006566666666665 0.4503283333333333 0.9003266666666665
0.9006766666666665 0.4503383333333333 0.8753966666666665
0.8710266666666663 0.4355133333333333 0.8652066666666666
0.8118966666666665 0.4059483333333332 0.8666666666666666
0.7864766666666665 0.3932383333333332 0.8797366666666665
0.7874966666666665 0.3937483333333334 0.9055566666666663
0.8167366666666666 0.4083683333333334 0.9168866666666665
0.8169666666666665 0.4084833333333333 0.9403766666666664
0.8735766666666664 0.4367883333333334 0.9139066666666665
0.8451366666666665 0.4225683333333334 0.9023266666666664
0.8435366666666665 0.4217683333333333 0.8784466666666665
0.7340166666666665 0.3670083333333333 0.9582666666666665
0.9289066666666664 0.4644533333333333 0.8610266666666665
0.8809566666666664 0.1190433333333333 0.7129666666666665
0.9082116666666664 0.0917883333333333 0.7378066666666665
0.9237716666666665 0.0762283333333333 0.7514966666666664
0.9507116666666664 0.0492883333333333 0.7769866666666664
0.8656266666666665 0.1343733333333333 0.6989766666666665
0.9658266666666665 0.0341733333333333 0.7910166666666665
0.8635966666666665 0.0878683333333333 0.7187866666666666
0.8768966666666664 0.0736283333333333 0.7312066666666666
0.9055316666666664 0.0449683333333333 0.7573866666666665
0.9197966666666663 0.0319383333333333 0.7698366666666665
0.8595766666666664 0.0415233333333333 0.7381466666666664
0.8738316666666665 0.0274133333333333 0.7492166666666665
0.7136216666666664 0.2863783333333332 0.4139266666666666
0.7144316666666666 0.2855683333333333 0.3903366666666666
0.7289066666666665 0.2710933333333333 0.3795466666666666
0.7574566666666666 0.2425433333333333 0.3817066666666666
0.7700866666666664 0.2299183333333333 0.3945766666666666
0.7836616666666665 0.2163383333333333 0.4330066666666665
0.7836716666666664 0.2163283333333332 0.4579366666666666
0.7688466666666666 0.2311533333333333 0.4681266666666665
0.7392816666666665 0.2607183333333334 0.4666666666666666
0.7265716666666664 0.2734283333333334 0.4535966666666666
0.7270816666666664 0.2729183333333333 0.4277766666666665
0.7417016666666665 0.2582983333333333 0.4164466666666666
0.7418166666666666 0.2581833333333333 0.3929566666666666
0.7701216666666664 0.2298783333333333 0.4194266666666666
0.7559016666666665 0.2440983333333333 0.4310066666666665
0.7551016666666664 0.2448983333333333 0.4548866666666666
0.7003416666666665 0.2996583333333333 0.3750666666666665
0.7977866666666664 0.2022133333333334 0.4723066666666665
0.5952466666666666 0.0476233333333333 0.6203666666666665
0.6497566666666665 0.0748783333333334 0.5955266666666665
0.6808766666666666 0.0904383333333333 0.5818366666666666
0.7347566666666666 0.1173783333333334 0.5563466666666665
0.5645866666666666 0.0322933333333333 0.6343566666666666
0.7649866666666666 0.1324933333333334 0.5423166666666666
0.6090616666666665 0.0787983333333333 0.6145466666666665
0.6366016666666665 0.0930383333333333 0.6021266666666665
0.6938966666666665 0.1216983333333332 0.5759466666666665
0.7211916666666665 0.1347283333333333 0.5634966666666665
0.6513866666666666 0.1251433333333334 0.5951866666666666
0.6797516666666665 0.1392533333333333 0.5841166666666665
0.7136216666666665 0.4272433333333334 0.4139266666666666
0.7144316666666666 0.4288633333333333 0.3903366666666666
0.7289066666666666 0.4578133333333334 0.3795466666666666
0.7574566666666666 0.0149133333333333 0.3817066666666666
0.7700816666666666 0.0401683333333333 0.3945766666666666
0.7836616666666665 0.0673233333333333 0.4330066666666665
0.7836716666666664 0.0673433333333334 0.4579366666666666
0.7688466666666665 0.0376933333333333 0.4681266666666665
0.7392816666666664 0.4785633333333333 0.4666666666666666
0.7265716666666665 0.4531433333333333 0.4535966666666666
0.7270816666666665 0.4541633333333334 0.4277766666666665
0.7417016666666666 0.4834033333333334 0.4164466666666666
0.7418166666666667 0.4836333333333333 0.3929566666666666
0.7701216666666665 0.0402433333333334 0.4194266666666666
0.7559016666666665 0.0118033333333333 0.4310066666666665
0.7551016666666664 0.0102033333333333 0.4548866666666666
0.7003416666666666 0.4006833333333333 0.3750666666666665
0.7977866666666663 0.0955733333333333 0.4723066666666665
0.9523766666666663 0.0476233333333333 0.6203666666666665
0.9251216666666663 0.0748783333333334 0.5955266666666665
0.9095616666666665 0.0904383333333333 0.5818366666666666
0.8826216666666665 0.1173783333333333 0.5563466666666665
0.9677066666666665 0.0322933333333333 0.6343566666666666
0.8675066666666664 0.1324933333333334 0.5423166666666666
0.9212016666666665 0.0302633333333333 0.6145466666666665
0.9069616666666664 0.0435633333333333 0.6021266666666665
0.8783016666666664 0.0721983333333333 0.5759466666666665
0.8652716666666666 0.0864633333333333 0.5634966666666665
0.8748566666666664 0.0262433333333333 0.5951866666666666
0.8607466666666665 0.0404983333333333 0.5841166666666665
0.5727566666666665 0.2863783333333332 0.4139266666666666
0.5711366666666665 0.2855683333333333 0.3903366666666666
0.5421866666666666 0.2710933333333333 0.3795466666666666
0.9850866666666666 0.2425433333333333 0.3817066666666666
0.9598316666666665 0.2299133333333333 0.3945766666666666
0.9326766666666663 0.2163383333333333 0.4330066666666665
0.9326566666666664 0.2163283333333333 0.4579366666666666
0.9623066666666664 0.2311533333333333 0.4681266666666665
0.5214366666666664 0.2607183333333333 0.4666666666666666
0.5468566666666665 0.2734283333333333 0.4535966666666666
0.5458366666666665 0.2729183333333333 0.4277766666666665
0.5165966666666664 0.2582983333333333 0.4164466666666666
0.5163666666666665 0.2581833333333333 0.3929566666666666
0.9597566666666664 0.2298783333333333 0.4194266666666666
0.9881966666666664 0.2440983333333333 0.4310066666666665
0.9897966666666664 0.2448983333333333 0.4548866666666666
0.5993166666666666 0.2996583333333332 0.3750666666666665
0.9044266666666665 0.2022133333333334 0.4723066666666665
0.9523766666666664 0.4047533333333332 0.6203666666666665
0.9251216666666664 0.3502433333333332 0.5955266666666665
0.9095616666666663 0.3191233333333333 0.5818366666666666
0.8826216666666665 0.2652433333333333 0.5563466666666665
0.9677066666666665 0.4354133333333333 0.6343566666666666
0.8675066666666664 0.2350133333333333 0.5423166666666666
0.9697366666666665 0.3909383333333333 0.6145466666666665
0.9564366666666665 0.3633983333333333 0.6021266666666665
0.9278016666666664 0.3061033333333333 0.5759466666666665
0.9135366666666664 0.2788083333333333 0.5634966666666665
0.9737566666666665 0.3486133333333333 0.5951866666666666
0.9595016666666665 0.3202483333333333 0.5841166666666665
0.9212016666666665 0.3909383333333333 0.6145466666666665
0.9069616666666664 0.3633983333333333 0.6021266666666665
0.8783016666666664 0.3061033333333333 0.5759466666666665
0.8652716666666664 0.2788083333333333 0.5634966666666665
0.8748566666666664 0.3486133333333333 0.5951866666666666
0.8607466666666665 0.3202483333333333 0.5841166666666665
0.6090616666666665 0.0302633333333333 0.6145466666666665
0.6366016666666665 0.0435633333333333 0.6021266666666665
0.6938966666666664 0.0721983333333333 0.5759466666666665
0.7211916666666665 0.0864633333333333 0.5634966666666665
0.6513866666666666 0.0262433333333333 0.5951866666666666
0.6797516666666664 0.0404983333333333 0.5841166666666665
0.9697366666666665 0.0787983333333333 0.6145466666666665
0.9564366666666665 0.0930383333333333 0.6021266666666665
0.9278016666666663 0.1216983333333332 0.5759466666666665
0.9135366666666664 0.1347283333333333 0.5634966666666665
0.9737566666666665 0.1251433333333334 0.5951866666666666
0.9595016666666665 0.1392533333333333 0.5841166666666665
0.7242716666666664 0.0878683333333333 0.7187866666666666
0.6967316666666664 0.0736283333333333 0.7312066666666666
0.6394366666666665 0.0449683333333333 0.7573866666666665
0.6121416666666666 0.0319383333333333 0.7698366666666665
0.6819466666666665 0.0415233333333333 0.7381466666666664
0.6535816666666666 0.0274133333333333 0.7492166666666665
0.9121316666666665 0.1364033333333333 0.7187866666666666
0.9263716666666665 0.1231033333333333 0.7312066666666666
0.9550316666666664 0.0944683333333334 0.7573866666666665
0.9680616666666665 0.0802033333333334 0.7698366666666665
0.9584766666666664 0.1404233333333333 0.7381466666666664
0.9725866666666664 0.1261683333333333 0.7492166666666665
0.8635966666666665 0.2757283333333333 0.7187866666666666
0.8768966666666664 0.3032683333333332 0.7312066666666666
0.9055316666666664 0.3605633333333333 0.7573866666666665
0.9197966666666664 0.3878583333333332 0.7698366666666665
0.8595766666666665 0.3180533333333333 0.7381466666666664
0.8738316666666666 0.3464183333333333 0.7492166666666665
0.9530449999999998 0.5469550000000000 0.2527400000000000
0.9522349999999998 0.5477650000000001 0.2763300000000000
0.9377599999999998 0.5622399999999999 0.2871199999999999
0.9092100000000000 0.5907900000000000 0.2849599999999999
0.8965849999999999 0.6034200000000000 0.2720899999999999
0.8830049999999999 0.6169950000000000 0.2336600000000000
0.8829949999999999 0.6170050000000000 0.2087300000000000
0.8978200000000000 0.6021800000000000 0.1985399999999999
0.9273849999999998 0.5726149999999999 0.2000000000000000
0.9400949999999998 0.5599050000000000 0.2130700000000000
0.9395849999999999 0.5604150000000000 0.2388900000000000
0.9249649999999999 0.5750349999999999 0.2502199999999999
0.9248499999999997 0.5751499999999999 0.2737100000000000
0.8965449999999997 0.6034550000000000 0.2472399999999999
0.9107649999999999 0.5892350000000000 0.2356600000000000
0.9115649999999998 0.5884350000000000 0.2117800000000000
0.9663249999999998 0.5336750000000000 0.2916000000000000
0.8688799999999999 0.6311200000000000 0.1943599999999999
0.7142899999999999 0.9285800000000000 0.0463000000000000
0.7415449999999999 0.9830899999999999 0.0711400000000000
0.7571049999999998 0.5142100000000001 0.0848300000000000
0.7840449999999999 0.5680900000000000 0.1103200000000000
0.6989599999999999 0.8979199999999999 0.0323100000000000
0.7991599999999999 0.5983200000000000 0.1243500000000000
0.7454649999999999 0.9423949999999999 0.0521200000000000
0.7597050000000000 0.9699350000000000 0.0645400000000000
0.7883649999999999 0.5272300000000000 0.0907200000000000
0.8013950000000000 0.5545249999999999 0.1031700000000000
0.7918099999999999 0.9847200000000000 0.0714800000000000
0.8059199999999999 0.5130850000000000 0.0825500000000000
0.9530449999999998 0.9060899999999998 0.2527400000000000
0.9522349999999998 0.9044700000000000 0.2763300000000000
0.9377599999999998 0.8755200000000000 0.2871199999999999
0.9092100000000000 0.8184200000000000 0.2849599999999999
0.8965799999999998 0.7931649999999999 0.2720899999999999
0.8830049999999998 0.7660100000000000 0.2336600000000000
0.8829949999999998 0.7659899999999998 0.2087300000000000
0.8978200000000000 0.7956399999999999 0.1985399999999999
0.9273849999999999 0.8547700000000000 0.2000000000000000
0.9400949999999999 0.8801899999999999 0.2130700000000000
0.9395849999999999 0.8791699999999999 0.2388900000000000
0.9249649999999999 0.8499300000000000 0.2502199999999999
0.9248499999999998 0.8496999999999999 0.2737100000000000
0.8965449999999998 0.7930900000000000 0.2472399999999999
0.9107649999999998 0.8215299999999999 0.2356600000000000
0.9115649999999998 0.8231300000000000 0.2117800000000000
0.9663249999999999 0.9326499999999999 0.2916000000000000
0.8688799999999998 0.7377599999999999 0.1943599999999999
0.5714199999999999 0.7857100000000000 0.0463000000000000
0.5169099999999999 0.7584549999999999 0.0711400000000000
0.9857899999999997 0.7428950000000000 0.0848300000000000
0.9319099999999999 0.7159549999999999 0.1103200000000000
0.6020799999999999 0.8010400000000000 0.0323100000000000
0.9016799999999999 0.7008399999999999 0.1243500000000000
0.5576049999999999 0.8030699999999998 0.0521200000000000
0.5300650000000000 0.7897700000000001 0.0645400000000000
0.9727700000000000 0.7611350000000000 0.0907200000000000
0.9454750000000000 0.7468700000000000 0.1031700000000000
0.5152799999999998 0.8070900000000000 0.0714800000000000
0.9869149999999998 0.7928350000000000 0.0825500000000000
0.5939100000000000 0.5469550000000001 0.2527400000000000
0.5955299999999999 0.5477650000000001 0.2763300000000000
0.6244799999999999 0.5622400000000001 0.2871199999999999
0.6815799999999999 0.5907899999999999 0.2849599999999999
0.7068349999999999 0.6034149999999999 0.2720899999999999
0.7339899999999999 0.6169950000000000 0.2336600000000000
0.7340099999999999 0.6170050000000000 0.2087300000000000
0.7043599999999999 0.6021799999999999 0.1985399999999999
0.6452299999999999 0.5726149999999999 0.2000000000000000
0.6198099999999999 0.5599050000000000 0.2130700000000000
0.6208300000000000 0.5604150000000000 0.2388900000000000
0.6500699999999999 0.5750349999999999 0.2502199999999999
0.6502999999999999 0.5751499999999999 0.2737100000000000
0.7069099999999999 0.6034550000000001 0.2472399999999999
0.6784699999999999 0.5892350000000000 0.2356600000000000
0.6768699999999999 0.5884350000000000 0.2117800000000000
0.5673500000000000 0.5336750000000000 0.2916000000000000
0.7622399999999999 0.6311200000000000 0.1943599999999999
0.7142899999999999 0.7857100000000000 0.0463000000000000
0.7415449999999999 0.7584549999999999 0.0711400000000000
0.7571049999999999 0.7428950000000000 0.0848300000000000
0.7840449999999999 0.7159549999999999 0.1103200000000000
0.6989599999999999 0.8010400000000000 0.0323100000000000
0.7991600000000000 0.7008400000000000 0.1243500000000000
0.6969300000000000 0.7545350000000000 0.0521200000000000
0.7102299999999998 0.7402949999999999 0.0645400000000000
0.7388649999999999 0.7116349999999999 0.0907200000000000
0.7531299999999999 0.6986049999999998 0.1031700000000000
0.6929099999999998 0.7081899999999999 0.0714800000000000
0.7071649999999999 0.6940799999999999 0.0825500000000000
0.5469549999999999 0.9530449999999999 0.7472599999999998
0.5477650000000001 0.9522349999999999 0.7236699999999999
0.5622400000000000 0.9377599999999999 0.7128799999999997
0.5907900000000000 0.9092100000000002 0.7150399999999999
0.6034200000000000 0.8965850000000000 0.7279099999999998
0.6169950000000000 0.8830050000000000 0.7663399999999999
0.6170050000000000 0.8829950000000001 0.7912699999999998
0.6021800000000000 0.8978200000000000 0.8014600000000000
0.5726149999999999 0.9273850000000000 0.7999999999999998
0.5599050000000000 0.9400950000000001 0.7869299999999998
0.5604150000000000 0.9395850000000000 0.7611099999999998
0.5750349999999999 0.9249650000000000 0.7497799999999999
0.5751500000000001 0.9248499999999999 0.7262899999999999
0.6034550000000000 0.8965449999999998 0.7527599999999999
0.5892350000000000 0.9107650000000002 0.7643399999999999
0.5884350000000000 0.9115650000000001 0.7882199999999999
0.5336750000000000 0.9663250000000001 0.7083999999999997
0.6311200000000000 0.8688800000000000 0.8056399999999999
0.9285799999999998 0.7142900000000000 0.9536999999999998
0.9830899999999999 0.7415450000000000 0.9288599999999999
0.5142100000000001 0.7571049999999999 0.9151699999999999
0.5680900000000000 0.7840450000000000 0.8896799999999999
0.8979199999999999 0.6989600000000000 0.9676899999999998
0.5983200000000000 0.7991600000000000 0.8756499999999998
0.9423949999999999 0.7454650000000000 0.9478799999999998
0.9699349999999999 0.7597050000000000 0.9354599999999997
0.5272300000000000 0.7883650000000000 0.9092799999999999
0.5545250000000000 0.8013950000000001 0.8968299999999999
0.9847199999999999 0.7918100000000000 0.9285199999999999
0.5130849999999999 0.8059200000000000 0.9174499999999999
0.5469550000000000 0.5939100000000000 0.7472599999999998
0.5477649999999999 0.5955300000000000 0.7236699999999999
0.5622400000000000 0.6244799999999999 0.7128799999999997
0.5907899999999999 0.6815800000000000 0.7150399999999999
0.6034149999999999 0.7068350000000000 0.7279099999999998
0.6169949999999998 0.7339900000000000 0.7663399999999999
0.6170050000000000 0.7340099999999999 0.7912699999999998
0.6021799999999999 0.7043600000000000 0.8014600000000000
0.5726149999999999 0.6452300000000000 0.7999999999999998
0.5599049999999999 0.6198099999999999 0.7869299999999998
0.5604149999999999 0.6208299999999999 0.7611099999999998
0.5750349999999999 0.6500699999999999 0.7497799999999999
0.5751499999999999 0.6503000000000000 0.7262899999999999
0.6034550000000001 0.7069099999999999 0.7527599999999999
0.5892349999999998 0.6784699999999999 0.7643399999999999
0.5884349999999999 0.6768700000000000 0.7882199999999999
0.5336749999999999 0.5673500000000000 0.7083999999999997
0.6311200000000000 0.7622400000000000 0.8056399999999999
0.7857099999999999 0.7142900000000000 0.9536999999999998
0.7584550000000000 0.7415450000000000 0.9288599999999999
0.7428950000000001 0.7571050000000000 0.9151699999999999
0.7159550000000000 0.7840450000000000 0.8896799999999999
0.8010399999999999 0.6989600000000000 0.9676899999999998
0.7008400000000000 0.7991600000000002 0.8756499999999998
0.7545350000000000 0.6969300000000000 0.9478799999999998
0.7402949999999998 0.7102299999999999 0.9354599999999997
0.7116349999999999 0.7388650000000000 0.9092799999999999
0.6986049999999998 0.7531300000000000 0.8968299999999999
0.7081899999999999 0.6929099999999999 0.9285199999999999
0.6940800000000000 0.7071650000000000 0.9174499999999999
0.9060900000000000 0.9530450000000000 0.7472599999999998
0.9044700000000000 0.9522349999999999 0.7236699999999999
0.8755199999999999 0.9377599999999999 0.7128799999999997
0.8184199999999999 0.9092100000000002 0.7150399999999999
0.7931650000000000 0.8965800000000000 0.7279099999999998
0.7660100000000000 0.8830050000000000 0.7663399999999999
0.7659899999999998 0.8829950000000001 0.7912699999999998
0.7956399999999999 0.8978200000000000 0.8014600000000000
0.8547699999999999 0.9273850000000000 0.7999999999999998
0.8801899999999999 0.9400950000000001 0.7869299999999998
0.8791700000000000 0.9395850000000000 0.7611099999999998
0.8499299999999999 0.9249650000000000 0.7497799999999999
0.8496999999999999 0.9248499999999999 0.7262899999999999
0.7930899999999999 0.8965449999999998 0.7527599999999999
0.8215300000000000 0.9107650000000002 0.7643399999999999
0.8231300000000000 0.9115650000000001 0.7882199999999999
0.9326499999999999 0.9663250000000001 0.7083999999999997
0.7377600000000000 0.8688800000000000 0.8056399999999999
0.7857099999999999 0.5714200000000000 0.9536999999999998
0.7584549999999999 0.5169100000000000 0.9288599999999999
0.7428950000000000 0.9857899999999999 0.9151699999999999
0.7159550000000000 0.9319099999999999 0.8896799999999999
0.8010399999999999 0.6020799999999999 0.9676899999999998
0.7008399999999999 0.9016800000000000 0.8756499999999998
0.8030699999999998 0.5576050000000001 0.9478799999999998
0.7897700000000001 0.5300650000000001 0.9354599999999997
0.7611350000000000 0.9727700000000000 0.9092799999999999
0.7468699999999999 0.9454750000000000 0.8968299999999999
0.8070900000000001 0.5152800000000000 0.9285199999999999
0.7928350000000000 0.9869150000000000 0.9174499999999999
0.7545350000000000 0.5576050000000001 0.9478799999999998
0.7402949999999998 0.5300650000000001 0.9354599999999997
0.7116350000000000 0.9727700000000000 0.9092799999999999
0.6986049999999998 0.9454750000000000 0.8968299999999999
0.7081900000000000 0.5152800000000000 0.9285199999999999
0.6940800000000000 0.9869150000000000 0.9174499999999999
0.9423949999999999 0.6969300000000000 0.9478799999999998
0.9699349999999999 0.7102299999999999 0.9354599999999997
0.5272300000000000 0.7388650000000000 0.9092799999999999
0.5545249999999999 0.7531300000000000 0.8968299999999999
0.9847199999999999 0.6929099999999999 0.9285199999999999
0.5130850000000000 0.7071650000000000 0.9174499999999999
0.8030699999999998 0.7454650000000000 0.9478799999999998
0.7897700000000000 0.7597050000000000 0.9354599999999997
0.7611349999999999 0.7883650000000000 0.9092799999999999
0.7468700000000000 0.8013950000000001 0.8968299999999999
0.8070900000000000 0.7918100000000000 0.9285199999999999
0.7928349999999998 0.8059200000000000 0.9174499999999999
0.5576050000000000 0.7545350000000000 0.0521200000000000
0.5300650000000000 0.7402949999999999 0.0645400000000000
0.9727700000000000 0.7116349999999999 0.0907200000000000
0.9454750000000000 0.6986049999999998 0.1031700000000000
0.5152799999999998 0.7081899999999999 0.0714800000000000
0.9869149999999999 0.6940799999999999 0.0825500000000000
0.7454649999999999 0.8030699999999998 0.0521200000000000
0.7597050000000000 0.7897700000000001 0.0645400000000000
0.7883649999999999 0.7611350000000000 0.0907200000000000
0.8013950000000000 0.7468700000000000 0.1031700000000000
0.7918099999999999 0.8070900000000000 0.0714800000000000
0.8059199999999999 0.7928350000000000 0.0825500000000000
0.6969299999999999 0.9423949999999999 0.0521200000000000
0.7102299999999999 0.9699350000000000 0.0645400000000000
0.7388649999999999 0.5272300000000000 0.0907200000000000
0.7531299999999999 0.5545249999999999 0.1031700000000000
0.6929099999999998 0.9847200000000000 0.0714800000000000
0.7071649999999999 0.5130850000000000 0.0825500000000000
0.7863783333333332 0.7136216666666665 0.5860733333333333
0.7855683333333332 0.7144316666666667 0.6096633333333332
0.7710933333333332 0.7289066666666665 0.6204533333333332
0.7425433333333332 0.7574566666666666 0.6182933333333333
0.7299183333333332 0.7700866666666666 0.6054233333333332
0.7163383333333332 0.7836616666666665 0.5669933333333332
0.7163283333333331 0.7836716666666665 0.5420633333333332
0.7311533333333332 0.7688466666666666 0.5318733333333332
0.7607183333333333 0.7392816666666665 0.5333333333333332
0.7734283333333334 0.7265716666666666 0.5464033333333332
0.7729183333333333 0.7270816666666665 0.5722233333333332
0.7582983333333332 0.7417016666666667 0.5835533333333333
0.7581833333333332 0.7418166666666666 0.6070433333333333
0.7298783333333331 0.7701216666666664 0.5805733333333332
0.7440983333333332 0.7559016666666666 0.5689933333333332
0.7448983333333332 0.7551016666666666 0.5451133333333332
0.7996583333333332 0.7003416666666666 0.6249333333333332
0.7022133333333332 0.7977866666666664 0.5276933333333332
0.5476233333333334 0.5952466666666667 0.3796333333333333
0.5748783333333334 0.6497566666666666 0.4044733333333332
0.5904383333333332 0.6808766666666667 0.4181633333333333
0.6173783333333333 0.7347566666666666 0.4436533333333333
0.5322933333333333 0.5645866666666667 0.3656433333333333
0.6324933333333332 0.7649866666666665 0.4576833333333333
0.5787983333333333 0.6090616666666666 0.3854533333333333
0.5930383333333332 0.6366016666666665 0.3978733333333332
0.6216983333333331 0.6938966666666665 0.4240533333333332
0.6347283333333332 0.7211916666666666 0.4365033333333332
0.6251433333333333 0.6513866666666666 0.4048133333333332
0.6392533333333332 0.6797516666666665 0.4158833333333333
0.7863783333333332 0.5727566666666665 0.5860733333333333
0.7855683333333332 0.5711366666666665 0.6096633333333332
0.7710933333333332 0.5421866666666666 0.6204533333333332
0.7425433333333333 0.9850866666666667 0.6182933333333333
0.7299133333333333 0.9598316666666667 0.6054233333333332
0.7163383333333332 0.9326766666666665 0.5669933333333332
0.7163283333333332 0.9326566666666665 0.5420633333333332
0.7311533333333332 0.9623066666666665 0.5318733333333332
0.7607183333333333 0.5214366666666665 0.5333333333333332
0.7734283333333333 0.5468566666666665 0.5464033333333332
0.7729183333333333 0.5458366666666666 0.5722233333333332
0.7582983333333332 0.5165966666666666 0.5835533333333333
0.7581833333333332 0.5163666666666665 0.6070433333333333
0.7298783333333332 0.9597566666666665 0.5805733333333332
0.7440983333333331 0.9881966666666665 0.5689933333333332
0.7448983333333332 0.9897966666666664 0.5451133333333332
0.7996583333333332 0.5993166666666665 0.6249333333333332
0.7022133333333332 0.9044266666666665 0.5276933333333332
0.9047533333333333 0.9523766666666666 0.3796333333333333
0.8502433333333331 0.9251216666666665 0.4044733333333332
0.8191233333333331 0.9095616666666664 0.4181633333333333
0.7652433333333331 0.8826216666666664 0.4436533333333333
0.9354133333333332 0.9677066666666666 0.3656433333333333
0.7350133333333332 0.8675066666666664 0.4576833333333333
0.8909383333333333 0.9697366666666667 0.3854533333333333
0.8633983333333330 0.9564366666666665 0.3978733333333332
0.8061033333333332 0.9278016666666664 0.4240533333333332
0.7788083333333332 0.9135366666666666 0.4365033333333332
0.8486133333333331 0.9737566666666666 0.4048133333333332
0.8202483333333331 0.9595016666666665 0.4158833333333333
0.9272433333333332 0.7136216666666666 0.5860733333333333
0.9288633333333333 0.7144316666666667 0.6096633333333332
0.9578133333333333 0.7289066666666667 0.6204533333333332
0.5149133333333332 0.7574566666666666 0.6182933333333333
0.5401683333333334 0.7700816666666668 0.6054233333333332
0.5673233333333333 0.7836616666666665 0.5669933333333332
0.5673433333333332 0.7836716666666665 0.5420633333333332
0.5376933333333332 0.7688466666666666 0.5318733333333332
0.9785633333333331 0.7392816666666665 0.5333333333333332
0.9531433333333331 0.7265716666666666 0.5464033333333332
0.9541633333333330 0.7270816666666665 0.5722233333333332
0.9834033333333333 0.7417016666666667 0.5835533333333333
0.9836333333333331 0.7418166666666666 0.6070433333333333
0.5402433333333333 0.7701216666666666 0.5805733333333332
0.5118033333333333 0.7559016666666666 0.5689933333333332
0.5102033333333332 0.7551016666666666 0.5451133333333332
0.9006833333333332 0.7003416666666666 0.6249333333333332
0.5955733333333332 0.7977866666666664 0.5276933333333332
0.5476233333333335 0.9523766666666666 0.3796333333333333
0.5748783333333334 0.9251216666666665 0.4044733333333332
0.5904383333333333 0.9095616666666665 0.4181633333333333
0.6173783333333333 0.8826216666666664 0.4436533333333333
0.5322933333333333 0.9677066666666666 0.3656433333333333
0.6324933333333332 0.8675066666666664 0.4576833333333333
0.5302633333333333 0.9212016666666667 0.3854533333333333
0.5435633333333332 0.9069616666666666 0.3978733333333332
0.5721983333333333 0.8783016666666665 0.4240533333333332
0.5864633333333332 0.8652716666666664 0.4365033333333332
0.5262433333333332 0.8748566666666665 0.4048133333333332
0.5404983333333332 0.8607466666666664 0.4158833333333333
0.8802883333333332 0.6197116666666667 0.0805933333333333
0.8810983333333332 0.6189016666666666 0.0570033333333333
0.8955733333333332 0.6044266666666666 0.0462133333333333
0.9241233333333331 0.5758766666666667 0.0483733333333333
0.9367533333333331 0.5632516666666667 0.0612433333333333
0.9503283333333332 0.5496716666666667 0.0996733333333333
0.9503383333333331 0.5496616666666666 0.1246033333333333
0.9355133333333332 0.5644866666666667 0.1347933333333333
0.9059483333333332 0.5940516666666665 0.1333333333333333
0.8932383333333331 0.6067616666666666 0.1202633333333333
0.8937483333333333 0.6062516666666665 0.0944433333333333
0.9083683333333332 0.5916316666666666 0.0831133333333333
0.9084833333333332 0.5915166666666667 0.0596233333333333
0.9367883333333331 0.5632116666666667 0.0860933333333333
0.9225683333333332 0.5774316666666667 0.0976733333333333
0.9217683333333332 0.5782316666666667 0.1215533333333333
0.8670083333333333 0.6329916666666666 0.0417333333333333
0.9644533333333332 0.5355466666666666 0.1389733333333333
0.7619133333333332 0.8809566666666665 0.2870333333333333
0.8164233333333332 0.9082116666666665 0.2621933333333333
0.8475433333333332 0.9237716666666665 0.2485033333333332
0.9014233333333331 0.9507116666666666 0.2230133333333333
0.7312533333333333 0.8656266666666667 0.3010233333333333
0.9316533333333332 0.9658266666666665 0.2089833333333333
0.7757283333333334 0.9121316666666667 0.2812133333333333
0.8032683333333331 0.9263716666666667 0.2687933333333333
0.8605633333333332 0.9550316666666665 0.2426133333333333
0.8878583333333332 0.9680616666666666 0.2301633333333333
0.8180533333333332 0.9584766666666665 0.2618533333333333
0.8464183333333331 0.9725866666666666 0.2507833333333332
0.8802883333333331 0.7605766666666666 0.0805933333333333
0.8810983333333332 0.7621966666666666 0.0570033333333333
0.8955733333333332 0.7911466666666667 0.0462133333333333
0.9241233333333332 0.8482466666666666 0.0483733333333333
0.9367483333333332 0.8735016666666665 0.0612433333333333
0.9503283333333331 0.9006566666666665 0.0996733333333333
0.9503383333333332 0.9006766666666667 0.1246033333333333
0.9355133333333331 0.8710266666666665 0.1347933333333333
0.9059483333333332 0.8118966666666666 0.1333333333333333
0.8932383333333331 0.7864766666666665 0.1202633333333333
0.8937483333333333 0.7874966666666666 0.0944433333333333
0.9083683333333332 0.8167366666666667 0.0831133333333333
0.9084833333333331 0.8169666666666665 0.0596233333333333
0.9367883333333332 0.8735766666666667 0.0860933333333333
0.9225683333333331 0.8451366666666666 0.0976733333333333
0.9217683333333332 0.8435366666666666 0.1215533333333333
0.8670083333333333 0.7340166666666667 0.0417333333333333
0.9644533333333333 0.9289066666666665 0.1389733333333333
0.6190433333333333 0.8809566666666665 0.2870333333333333
0.5917883333333334 0.9082116666666665 0.2621933333333333
0.5762283333333332 0.9237716666666665 0.2485033333333332
0.5492883333333334 0.9507116666666666 0.2230133333333333
0.6343733333333333 0.8656266666666667 0.3010233333333333
0.5341733333333334 0.9658266666666666 0.2089833333333333
0.5878683333333332 0.8635966666666667 0.2812133333333333
0.5736283333333332 0.8768966666666665 0.2687933333333333
0.5449683333333333 0.9055316666666666 0.2426133333333333
0.5319383333333332 0.9197966666666666 0.2301633333333333
0.5415233333333334 0.8595766666666667 0.2618533333333333
0.5274133333333333 0.8738316666666666 0.2507833333333332
0.7394233333333332 0.6197116666666667 0.0805933333333333
0.7378033333333333 0.6189016666666666 0.0570033333333333
0.7088533333333332 0.6044266666666666 0.0462133333333333
0.6517533333333333 0.5758766666666667 0.0483733333333333
0.6264983333333333 0.5632466666666667 0.0612433333333333
0.5993433333333333 0.5496716666666667 0.0996733333333333
0.5993233333333331 0.5496616666666667 0.1246033333333333
0.6289733333333333 0.5644866666666667 0.1347933333333333
0.6881033333333332 0.5940516666666665 0.1333333333333333
0.7135233333333332 0.6067616666666666 0.1202633333333333
0.7125033333333332 0.6062516666666665 0.0944433333333333
0.6832633333333332 0.5916316666666666 0.0831133333333333
0.6830333333333333 0.5915166666666667 0.0596233333333333
0.6264233333333332 0.5632116666666667 0.0860933333333333
0.6548633333333334 0.5774316666666667 0.0976733333333333
0.6564633333333333 0.5782316666666667 0.1215533333333333
0.7659833333333331 0.6329916666666666 0.0417333333333333
0.5710933333333332 0.5355466666666666 0.1389733333333333
0.6190433333333333 0.7380866666666667 0.2870333333333333
0.5917883333333334 0.6835766666666666 0.2621933333333333
0.5762283333333332 0.6524566666666666 0.2485033333333332
0.5492883333333333 0.5985766666666666 0.2230133333333333
0.6343733333333333 0.7687466666666667 0.3010233333333333
0.5341733333333332 0.5683466666666667 0.2089833333333333
0.6364033333333332 0.7242716666666665 0.2812133333333333
0.6231033333333333 0.6967316666666666 0.2687933333333333
0.5944683333333333 0.6394366666666667 0.2426133333333333
0.5802033333333333 0.6121416666666667 0.2301633333333333
0.6404233333333333 0.6819466666666667 0.2618533333333333
0.6261683333333333 0.6535816666666667 0.2507833333333332
0.5878683333333332 0.7242716666666665 0.2812133333333333
0.5736283333333333 0.6967316666666666 0.2687933333333333
0.5449683333333332 0.6394366666666667 0.2426133333333333
0.5319383333333332 0.6121416666666667 0.2301633333333333
0.5415233333333334 0.6819466666666667 0.2618533333333333
0.5274133333333333 0.6535816666666667 0.2507833333333332
0.7757283333333332 0.8635966666666667 0.2812133333333333
0.8032683333333331 0.8768966666666665 0.2687933333333333
0.8605633333333333 0.9055316666666666 0.2426133333333333
0.8878583333333332 0.9197966666666666 0.2301633333333333
0.8180533333333333 0.8595766666666667 0.2618533333333333
0.8464183333333332 0.8738316666666666 0.2507833333333332
0.6364033333333333 0.9121316666666667 0.2812133333333333
0.6231033333333332 0.9263716666666667 0.2687933333333333
0.5944683333333334 0.9550316666666665 0.2426133333333333
0.5802033333333334 0.9680616666666666 0.2301633333333333
0.6404233333333333 0.9584766666666665 0.2618533333333333
0.6261683333333332 0.9725866666666666 0.2507833333333332
0.8909383333333333 0.9212016666666667 0.3854533333333333
0.8633983333333330 0.9069616666666666 0.3978733333333332
0.8061033333333332 0.8783016666666665 0.4240533333333332
0.7788083333333331 0.8652716666666664 0.4365033333333332
0.8486133333333332 0.8748566666666665 0.4048133333333332
0.8202483333333330 0.8607466666666664 0.4158833333333333
0.5787983333333333 0.9697366666666667 0.3854533333333333
0.5930383333333332 0.9564366666666665 0.3978733333333332
0.6216983333333331 0.9278016666666664 0.4240533333333332
0.6347283333333332 0.9135366666666666 0.4365033333333332
0.6251433333333333 0.9737566666666666 0.4048133333333332
0.6392533333333332 0.9595016666666665 0.4158833333333333
0.5302633333333333 0.6090616666666666 0.3854533333333333
0.5435633333333332 0.6366016666666665 0.3978733333333332
0.5721983333333333 0.6938966666666665 0.4240533333333332
0.5864633333333332 0.7211916666666666 0.4365033333333332
0.5262433333333333 0.6513866666666666 0.4048133333333332
0.5404983333333332 0.6797516666666665 0.4158833333333333
0.6197116666666667 0.8802883333333335 0.9194066666666666
0.6189016666666667 0.8810983333333333 0.9429966666666666
0.6044266666666667 0.8955733333333333 0.9537866666666664
0.5758766666666667 0.9241233333333333 0.9516266666666664
0.5632516666666667 0.9367533333333333 0.9387566666666666
0.5496716666666667 0.9503283333333334 0.9003266666666665
0.5496616666666665 0.9503383333333333 0.8753966666666665
0.5644866666666666 0.9355133333333333 0.8652066666666666
0.5940516666666665 0.9059483333333334 0.8666666666666666
0.6067616666666666 0.8932383333333334 0.8797366666666665
0.6062516666666666 0.8937483333333334 0.9055566666666663
0.5916316666666667 0.9083683333333333 0.9168866666666665
0.5915166666666667 0.9084833333333334 0.9403766666666664
0.5632116666666667 0.9367883333333332 0.9139066666666665
0.5774316666666667 0.9225683333333333 0.9023266666666664
0.5782316666666667 0.9217683333333333 0.8784466666666665
0.6329916666666666 0.8670083333333334 0.9582666666666665
0.5355466666666666 0.9644533333333333 0.8610266666666665
0.8809566666666665 0.7619133333333333 0.7129666666666665
0.9082116666666665 0.8164233333333333 0.7378066666666665
0.9237716666666667 0.8475433333333333 0.7514966666666664
0.9507116666666665 0.9014233333333331 0.7769866666666664
0.8656266666666664 0.7312533333333332 0.6989766666666665
0.9658266666666665 0.9316533333333334 0.7910166666666665
0.9121316666666666 0.7757283333333334 0.7187866666666666
0.9263716666666667 0.8032683333333334 0.7312066666666666
0.9550316666666665 0.8605633333333335 0.7573866666666665
0.9680616666666666 0.8878583333333333 0.7698366666666665
0.9584766666666665 0.8180533333333333 0.7381466666666664
0.9725866666666666 0.8464183333333333 0.7492166666666665
0.6197116666666667 0.7394233333333333 0.9194066666666666
0.6189016666666667 0.7378033333333334 0.9429966666666666
0.6044266666666667 0.7088533333333333 0.9537866666666664
0.5758766666666666 0.6517533333333334 0.9516266666666664
0.5632466666666667 0.6264983333333334 0.9387566666666666
0.5496716666666666 0.5993433333333333 0.9003266666666665
0.5496616666666667 0.5993233333333332 0.8753966666666665
0.5644866666666666 0.6289733333333333 0.8652066666666666
0.5940516666666665 0.6881033333333332 0.8666666666666666
0.6067616666666665 0.7135233333333332 0.8797366666666665
0.6062516666666666 0.7125033333333333 0.9055566666666663
0.5916316666666667 0.6832633333333333 0.9168866666666665
0.5915166666666668 0.6830333333333334 0.9403766666666664
0.5632116666666666 0.6264233333333333 0.9139066666666665
0.5774316666666667 0.6548633333333334 0.9023266666666664
0.5782316666666666 0.6564633333333334 0.8784466666666665
0.6329916666666666 0.7659833333333332 0.9582666666666665
0.5355466666666665 0.5710933333333333 0.8610266666666665
0.7380866666666666 0.6190433333333333 0.7129666666666665
0.6835766666666665 0.5917883333333334 0.7378066666666665
0.6524566666666666 0.5762283333333332 0.7514966666666664
0.5985766666666665 0.5492883333333334 0.7769866666666664
0.7687466666666667 0.6343733333333332 0.6989766666666665
0.5683466666666666 0.5341733333333333 0.7910166666666665
0.7242716666666665 0.6364033333333332 0.7187866666666666
0.6967316666666665 0.6231033333333332 0.7312066666666666
0.6394366666666665 0.5944683333333334 0.7573866666666665
0.6121416666666666 0.5802033333333333 0.7698366666666665
0.6819466666666666 0.6404233333333333 0.7381466666666664
0.6535816666666666 0.6261683333333332 0.7492166666666665
0.7605766666666667 0.8802883333333335 0.9194066666666666
0.7621966666666666 0.8810983333333333 0.9429966666666666
0.7911466666666666 0.8955733333333333 0.9537866666666664
0.8482466666666666 0.9241233333333333 0.9516266666666664
0.8735016666666665 0.9367483333333333 0.9387566666666666
0.9006566666666667 0.9503283333333334 0.9003266666666665
0.9006766666666666 0.9503383333333333 0.8753966666666665
0.8710266666666665 0.9355133333333333 0.8652066666666666
0.8118966666666665 0.9059483333333334 0.8666666666666666
0.7864766666666665 0.8932383333333334 0.8797366666666665
0.7874966666666666 0.8937483333333334 0.9055566666666663
0.8167366666666666 0.9083683333333333 0.9168866666666665
0.8169666666666666 0.9084833333333334 0.9403766666666664
0.8735766666666666 0.9367883333333332 0.9139066666666665
0.8451366666666666 0.9225683333333333 0.9023266666666664
0.8435366666666665 0.9217683333333333 0.8784466666666665
0.7340166666666667 0.8670083333333334 0.9582666666666665
0.9289066666666665 0.9644533333333333 0.8610266666666665
0.8809566666666665 0.6190433333333333 0.7129666666666665
0.9082116666666665 0.5917883333333334 0.7378066666666665
0.9237716666666665 0.5762283333333332 0.7514966666666664
0.9507116666666663 0.5492883333333334 0.7769866666666664
0.8656266666666665 0.6343733333333332 0.6989766666666665
0.9658266666666665 0.5341733333333333 0.7910166666666665
0.8635966666666666 0.5878683333333332 0.7187866666666666
0.8768966666666665 0.5736283333333332 0.7312066666666666
0.9055316666666665 0.5449683333333332 0.7573866666666665
0.9197966666666664 0.5319383333333332 0.7698366666666665
0.8595766666666665 0.5415233333333334 0.7381466666666664
0.8738316666666666 0.5274133333333332 0.7492166666666665
0.7136216666666665 0.7863783333333332 0.4139266666666666
0.7144316666666667 0.7855683333333333 0.3903366666666666
0.7289066666666666 0.7710933333333333 0.3795466666666666
0.7574566666666667 0.7425433333333333 0.3817066666666666
0.7700866666666666 0.7299183333333334 0.3945766666666666
0.7836616666666666 0.7163383333333333 0.4330066666666665
0.7836716666666664 0.7163283333333331 0.4579366666666666
0.7688466666666666 0.7311533333333333 0.4681266666666665
0.7392816666666664 0.7607183333333333 0.4666666666666666
0.7265716666666664 0.7734283333333332 0.4535966666666666
0.7270816666666664 0.7729183333333332 0.4277766666666665
0.7417016666666665 0.7582983333333331 0.4164466666666666
0.7418166666666667 0.7581833333333333 0.3929566666666666
0.7701216666666664 0.7298783333333332 0.4194266666666666
0.7559016666666666 0.7440983333333333 0.4310066666666665
0.7551016666666664 0.7448983333333332 0.4548866666666666
0.7003416666666665 0.7996583333333332 0.3750666666666665
0.7977866666666664 0.7022133333333332 0.4723066666666665
0.5952466666666666 0.5476233333333334 0.6203666666666665
0.6497566666666665 0.5748783333333334 0.5955266666666665
0.6808766666666666 0.5904383333333333 0.5818366666666666
0.7347566666666666 0.6173783333333334 0.5563466666666665
0.5645866666666666 0.5322933333333333 0.6343566666666666
0.7649866666666666 0.6324933333333332 0.5423166666666666
0.6090616666666665 0.5787983333333332 0.6145466666666665
0.6366016666666665 0.5930383333333333 0.6021266666666665
0.6938966666666665 0.6216983333333331 0.5759466666666665
0.7211916666666666 0.6347283333333332 0.5634966666666665
0.6513866666666666 0.6251433333333334 0.5951866666666666
0.6797516666666665 0.6392533333333333 0.5841166666666665
0.7136216666666665 0.9272433333333332 0.4139266666666666
0.7144316666666666 0.9288633333333334 0.3903366666666666
0.7289066666666667 0.9578133333333334 0.3795466666666666
0.7574566666666666 0.5149133333333334 0.3817066666666666
0.7700816666666667 0.5401683333333335 0.3945766666666666
0.7836616666666665 0.5673233333333334 0.4330066666666665
0.7836716666666664 0.5673433333333333 0.4579366666666666
0.7688466666666665 0.5376933333333334 0.4681266666666665
0.7392816666666665 0.9785633333333330 0.4666666666666666
0.7265716666666665 0.9531433333333331 0.4535966666666666
0.7270816666666664 0.9541633333333330 0.4277766666666665
0.7417016666666666 0.9834033333333333 0.4164466666666666
0.7418166666666666 0.9836333333333332 0.3929566666666666
0.7701216666666665 0.5402433333333333 0.4194266666666666
0.7559016666666665 0.5118033333333333 0.4310066666666665
0.7551016666666664 0.5102033333333333 0.4548866666666666
0.7003416666666665 0.9006833333333333 0.3750666666666665
0.7977866666666664 0.5955733333333332 0.4723066666666665
0.9523766666666665 0.5476233333333334 0.6203666666666665
0.9251216666666665 0.5748783333333334 0.5955266666666665
0.9095616666666666 0.5904383333333333 0.5818366666666666
0.8826216666666665 0.6173783333333334 0.5563466666666665
0.9677066666666666 0.5322933333333333 0.6343566666666666
0.8675066666666665 0.6324933333333332 0.5423166666666666
0.9212016666666665 0.5302633333333333 0.6145466666666665
0.9069616666666666 0.5435633333333333 0.6021266666666665
0.8783016666666665 0.5721983333333334 0.5759466666666665
0.8652716666666666 0.5864633333333332 0.5634966666666665
0.8748566666666665 0.5262433333333332 0.5951866666666666
0.8607466666666665 0.5404983333333333 0.5841166666666665
0.5727566666666665 0.7863783333333332 0.4139266666666666
0.5711366666666666 0.7855683333333333 0.3903366666666666
0.5421866666666666 0.7710933333333333 0.3795466666666666
0.9850866666666666 0.7425433333333333 0.3817066666666666
0.9598316666666666 0.7299133333333334 0.3945766666666666
0.9326766666666665 0.7163383333333333 0.4330066666666665
0.9326566666666665 0.7163283333333333 0.4579366666666666
0.9623066666666665 0.7311533333333333 0.4681266666666665
0.5214366666666665 0.7607183333333333 0.4666666666666666
0.5468566666666664 0.7734283333333332 0.4535966666666666
0.5458366666666665 0.7729183333333332 0.4277766666666665
0.5165966666666665 0.7582983333333331 0.4164466666666666
0.5163666666666666 0.7581833333333333 0.3929566666666666
0.9597566666666664 0.7298783333333332 0.4194266666666666
0.9881966666666664 0.7440983333333333 0.4310066666666665
0.9897966666666663 0.7448983333333332 0.4548866666666666
0.5993166666666666 0.7996583333333332 0.3750666666666665
0.9044266666666665 0.7022133333333332 0.4723066666666665
0.9523766666666666 0.9047533333333333 0.6203666666666665
0.9251216666666664 0.8502433333333332 0.5955266666666665
0.9095616666666665 0.8191233333333332 0.5818366666666666
0.8826216666666664 0.7652433333333331 0.5563466666666665
0.9677066666666666 0.9354133333333332 0.6343566666666666
0.8675066666666665 0.7350133333333333 0.5423166666666666
0.9697366666666666 0.8909383333333334 0.6145466666666665
0.9564366666666666 0.8633983333333333 0.6021266666666665
0.9278016666666665 0.8061033333333333 0.5759466666666665
0.9135366666666664 0.7788083333333331 0.5634966666666665
0.9737566666666666 0.8486133333333334 0.5951866666666666
0.9595016666666666 0.8202483333333331 0.5841166666666665
0.9212016666666666 0.8909383333333334 0.6145466666666665
0.9069616666666666 0.8633983333333333 0.6021266666666665
0.8783016666666665 0.8061033333333333 0.5759466666666665
0.8652716666666664 0.7788083333333331 0.5634966666666665
0.8748566666666665 0.8486133333333334 0.5951866666666666
0.8607466666666665 0.8202483333333331 0.5841166666666665
0.6090616666666665 0.5302633333333333 0.6145466666666665
0.6366016666666665 0.5435633333333333 0.6021266666666665
0.6938966666666665 0.5721983333333334 0.5759466666666665
0.7211916666666666 0.5864633333333332 0.5634966666666665
0.6513866666666666 0.5262433333333332 0.5951866666666666
0.6797516666666665 0.5404983333333333 0.5841166666666665
0.9697366666666665 0.5787983333333332 0.6145466666666665
0.9564366666666665 0.5930383333333333 0.6021266666666665
0.9278016666666665 0.6216983333333331 0.5759466666666665
0.9135366666666664 0.6347283333333332 0.5634966666666665
0.9737566666666666 0.6251433333333334 0.5951866666666666
0.9595016666666666 0.6392533333333333 0.5841166666666665
0.7242716666666665 0.5878683333333332 0.7187866666666666
0.6967316666666665 0.5736283333333332 0.7312066666666666
0.6394366666666665 0.5449683333333332 0.7573866666666665
0.6121416666666666 0.5319383333333332 0.7698366666666665
0.6819466666666666 0.5415233333333334 0.7381466666666664
0.6535816666666666 0.5274133333333332 0.7492166666666665
0.9121316666666666 0.6364033333333332 0.7187866666666666
0.9263716666666666 0.6231033333333332 0.7312066666666666
0.9550316666666664 0.5944683333333334 0.7573866666666665
0.9680616666666665 0.5802033333333333 0.7698366666666665
0.9584766666666665 0.6404233333333333 0.7381466666666664
0.9725866666666665 0.6261683333333332 0.7492166666666665
0.8635966666666667 0.7757283333333334 0.7187866666666666
0.8768966666666667 0.8032683333333334 0.7312066666666666
0.9055316666666666 0.8605633333333335 0.7573866666666665
0.9197966666666665 0.8878583333333333 0.7698366666666665
0.8595766666666667 0.8180533333333333 0.7381466666666664
0.8738316666666666 0.8464183333333333 0.7492166666666665
0.4630449999999999 0.0369550000000000 0.2452100000000000
0.4369599999999999 0.0630400000000000 0.3039999999999999
0.4083799999999999 0.0916200000000000 0.3018299999999999
0.3867349999999999 0.1132650000000000 0.2800599999999999
0.3731699999999999 0.1268300000000000 0.2416699999999999
0.3986049999999999 0.1013950000000000 0.1816599999999999
0.4281650000000000 0.0718350000000000 0.1831199999999999
0.4500349999999999 0.0499650000000000 0.2053700000000000
0.2572500000000000 0.4327400000000000 0.0474900000000000
0.3230999999999999 0.0645850000000000 0.1070800000000000
0.3035800000000000 0.4745750000000000 0.0683200000000000
0.3280250000000000 0.0237850000000000 0.0849200000000000
0.4630449999999999 0.4260899999999999 0.2452100000000000
0.4369600000000000 0.3739200000000001 0.3039999999999999
0.4083800000000000 0.3167600000000000 0.3018299999999999
0.3867349999999999 0.2734699999999999 0.2800599999999999
0.3731699999999999 0.2463400000000000 0.2416699999999999
0.3986049999999999 0.2972100000000000 0.1816599999999999
0.4281650000000000 0.3563300000000000 0.1831199999999999
0.4500349999999999 0.4000699999999999 0.2053700000000000
0.0672600000000000 0.3245100000000000 0.0474900000000000
0.4354149999999999 0.2585150000000000 0.1070800000000000
0.0254250000000000 0.3290050000000000 0.0683200000000000
0.4762149999999999 0.3042400000000000 0.0849200000000000
0.0739100000000000 0.0369550000000000 0.2452100000000000
0.1260799999999999 0.0630400000000000 0.3039999999999999
0.1832399999999999 0.0916200000000000 0.3018299999999999
0.2265300000000000 0.1132650000000000 0.2800599999999999
0.2536599999999999 0.1268300000000000 0.2416699999999999
0.2027900000000000 0.1013950000000000 0.1816599999999999
0.1436700000000000 0.0718350000000000 0.1831199999999999
0.0999299999999999 0.0499650000000000 0.2053700000000000
0.1754900000000000 0.2427500000000000 0.0474900000000000
0.2414849999999999 0.1769000000000000 0.1070800000000000
0.1709950000000000 0.1964200000000000 0.0683200000000000
0.1957600000000000 0.1719750000000000 0.0849200000000000
0.0369550000000000 0.4630449999999999 0.7547899999999997
0.0630400000000000 0.4369600000000000 0.6959999999999997
0.0916200000000000 0.4083800000000000 0.6981699999999997
0.1132650000000000 0.3867349999999999 0.7199399999999999
0.1268300000000000 0.3731699999999999 0.7583299999999998
0.1013950000000000 0.3986050000000000 0.8183400000000000
0.0718350000000000 0.4281650000000000 0.8168799999999998
0.0499650000000000 0.4500350000000000 0.7946299999999998
0.4327400000000000 0.2572500000000000 0.9525099999999999
0.0645850000000000 0.3231000000000000 0.8929199999999998
0.4745750000000000 0.3035800000000000 0.9316799999999998
0.0237850000000000 0.3280250000000000 0.9150799999999999
0.0369550000000000 0.0739100000000000 0.7547899999999997
0.0630400000000000 0.1260800000000000 0.6959999999999997
0.0916200000000000 0.1832399999999999 0.6981699999999997
0.1132650000000000 0.2265300000000000 0.7199399999999999
0.1268300000000000 0.2536600000000000 0.7583299999999998
0.1013950000000000 0.2027900000000001 0.8183400000000000
0.0718350000000000 0.1436700000000000 0.8168799999999998
0.0499650000000000 0.0999299999999999 0.7946299999999998
0.2427500000000000 0.1754900000000000 0.9525099999999999
0.1768999999999999 0.2414850000000000 0.8929199999999998
0.1964200000000000 0.1709950000000000 0.9316799999999998
0.1719749999999999 0.1957600000000000 0.9150799999999999
0.4260899999999999 0.4630449999999999 0.7547899999999997
0.3739199999999999 0.4369600000000000 0.6959999999999997
0.3167600000000000 0.4083800000000000 0.6981699999999997
0.2734699999999999 0.3867349999999999 0.7199399999999999
0.2463399999999999 0.3731699999999999 0.7583299999999998
0.2972099999999999 0.3986050000000000 0.8183400000000000
0.3563300000000000 0.4281650000000000 0.8168799999999998
0.4000700000000000 0.4500350000000000 0.7946299999999998
0.3245099999999999 0.0672600000000000 0.9525099999999999
0.2585150000000001 0.4354150000000001 0.8929199999999998
0.3290049999999999 0.0254250000000000 0.9316799999999998
0.3042400000000001 0.4762150000000000 0.9150799999999999
0.2427500000000000 0.0672600000000000 0.9525099999999999
0.1769000000000000 0.4354150000000001 0.8929199999999998
0.1964200000000000 0.0254250000000000 0.9316799999999998
0.1719750000000000 0.4762150000000000 0.9150799999999999
0.4327400000000000 0.1754900000000000 0.9525099999999999
0.0645850000000000 0.2414850000000000 0.8929199999999998
0.4745750000000000 0.1709950000000000 0.9316799999999998
0.0237850000000000 0.1957600000000000 0.9150799999999999
0.3245100000000000 0.2572500000000000 0.9525099999999999
0.2585150000000000 0.3231000000000000 0.8929199999999998
0.3290049999999999 0.3035800000000000 0.9316799999999998
0.3042400000000000 0.3280250000000000 0.9150799999999999
0.0672600000000000 0.2427500000000000 0.0474900000000000
0.4354149999999999 0.1769000000000000 0.1070800000000000
0.0254250000000000 0.1964200000000000 0.0683200000000000
0.4762149999999999 0.1719750000000000 0.0849200000000000
0.2572500000000000 0.3245100000000000 0.0474900000000000
0.3230999999999999 0.2585150000000000 0.1070800000000000
0.3035800000000000 0.3290050000000000 0.0683200000000000
0.3280250000000000 0.3042400000000000 0.0849200000000000
0.1754900000000001 0.4327400000000000 0.0474900000000000
0.2414849999999999 0.0645850000000000 0.1070800000000000
0.1709950000000000 0.4745750000000000 0.0683200000000000
0.1957600000000000 0.0237850000000000 0.0849200000000000
0.2963783333333333 0.2036216666666666 0.5785433333333332
0.2702933333333332 0.2297066666666667 0.6373333333333332
0.2417133333333333 0.2582866666666666 0.6351633333333332
0.2200683333333333 0.2799316666666667 0.6133933333333332
0.2065033333333332 0.2934966666666666 0.5750033333333332
0.2319383333333333 0.2680616666666667 0.5149933333333332
0.2614983333333334 0.2385016666666666 0.5164533333333332
0.2833683333333333 0.2166316666666667 0.5387033333333332
0.0905833333333332 0.0994066666666666 0.3808233333333332
0.1564333333333333 0.2312516666666666 0.4404133333333332
0.1369133333333333 0.1412416666666667 0.4016533333333333
0.1613583333333332 0.1904516666666666 0.4182533333333333
0.2963783333333332 0.0927566666666666 0.5785433333333332
0.2702933333333333 0.0405866666666667 0.6373333333333332
0.2417133333333333 0.4834266666666666 0.6351633333333332
0.2200683333333333 0.4401366666666665 0.6133933333333332
0.2065033333333333 0.4130066666666666 0.5750033333333332
0.2319383333333332 0.4638766666666666 0.5149933333333332
0.2614983333333333 0.0229966666666667 0.5164533333333332
0.2833683333333333 0.0667366666666667 0.5387033333333332
0.4005933333333332 0.4911766666666666 0.3808233333333332
0.2687483333333333 0.4251816666666666 0.4404133333333332
0.3587583333333332 0.4956716666666666 0.4016533333333333
0.3095483333333333 0.4709066666666667 0.4182533333333333
0.4072433333333333 0.2036216666666667 0.5785433333333332
0.4594133333333332 0.2297066666666666 0.6373333333333332
0.0165733333333333 0.2582866666666666 0.6351633333333332
0.0598633333333333 0.2799316666666667 0.6133933333333332
0.0869933333333333 0.2934966666666666 0.5750033333333332
0.0361233333333334 0.2680616666666667 0.5149933333333332
0.4770033333333333 0.2385016666666666 0.5164533333333332
0.4332633333333333 0.2166316666666667 0.5387033333333332
0.0088233333333335 0.4094166666666667 0.3808233333333332
0.0748183333333333 0.3435666666666666 0.4404133333333332
0.0043283333333333 0.3630866666666666 0.4016533333333333
0.0290933333333333 0.3386416666666666 0.4182533333333333
0.3702883333333333 0.1297116666666667 0.0881233333333333
0.3963733333333332 0.1036266666666666 0.0293333333333333
0.4249533333333332 0.0750466666666667 0.0315033333333333
0.4465983333333333 0.0534016666666667 0.0532733333333333
0.4601633333333333 0.0398366666666666 0.0916633333333333
0.4347283333333332 0.0652716666666666 0.1516733333333333
0.4051683333333332 0.0948316666666666 0.1502133333333333
0.3832983333333332 0.1167016666666667 0.1279633333333333
0.2660733333333333 0.4239166666666666 0.2858433333333333
0.3979183333333333 0.4897666666666666 0.2262533333333333
0.3079083333333333 0.4702466666666666 0.2650133333333333
0.3571183333333332 0.4946916666666665 0.2484133333333333
0.3702883333333333 0.2405766666666667 0.0881233333333333
0.3963733333333332 0.2927466666666666 0.0293333333333333
0.4249533333333332 0.3499066666666666 0.0315033333333333
0.4465983333333333 0.3931966666666666 0.0532733333333333
0.4601633333333332 0.4203266666666666 0.0916633333333333
0.4347283333333333 0.3694566666666667 0.1516733333333333
0.4051683333333332 0.3103366666666666 0.1502133333333333
0.3832983333333332 0.2665966666666665 0.1279633333333333
0.0760833333333334 0.3421566666666666 0.2858433333333333
0.0102333333333333 0.4081516666666666 0.2262533333333333
0.0297533333333333 0.3376616666666666 0.2650133333333333
0.0053083333333333 0.3624266666666666 0.2484133333333333
0.2594233333333333 0.1297116666666667 0.0881233333333333
0.2072533333333333 0.1036266666666666 0.0293333333333333
0.1500933333333334 0.0750466666666667 0.0315033333333333
0.1068033333333333 0.0534016666666667 0.0532733333333333
0.0796733333333332 0.0398366666666667 0.0916633333333333
0.1305433333333332 0.0652716666666666 0.1516733333333333
0.1896633333333333 0.0948316666666666 0.1502133333333333
0.2334033333333334 0.1167016666666666 0.1279633333333333
0.1578433333333333 0.2339266666666666 0.2858433333333333
0.0918483333333333 0.1020816666666667 0.2262533333333333
0.1623383333333333 0.1920916666666667 0.2650133333333333
0.1375733333333333 0.1428816666666667 0.2484133333333333
0.0760833333333334 0.2339266666666666 0.2858433333333333
0.0102333333333333 0.1020816666666667 0.2262533333333333
0.0297533333333333 0.1920916666666667 0.2650133333333333
0.0053083333333333 0.1428816666666667 0.2484133333333333
0.2660733333333334 0.3421566666666666 0.2858433333333333
0.3979183333333332 0.4081516666666666 0.2262533333333333
0.3079083333333333 0.3376616666666666 0.2650133333333333
0.3571183333333332 0.3624266666666666 0.2484133333333333
0.1578433333333333 0.4239166666666666 0.2858433333333333
0.0918483333333333 0.4897666666666666 0.2262533333333333
0.1623383333333333 0.4702466666666666 0.2650133333333333
0.1375733333333333 0.4946916666666665 0.2484133333333333
0.4005933333333333 0.4094166666666667 0.3808233333333332
0.2687483333333333 0.3435666666666666 0.4404133333333332
0.3587583333333332 0.3630866666666666 0.4016533333333333
0.3095483333333333 0.3386416666666666 0.4182533333333333
0.0905833333333332 0.4911766666666666 0.3808233333333332
0.1564333333333333 0.4251816666666666 0.4404133333333332
0.1369133333333333 0.4956716666666666 0.4016533333333333
0.1613583333333333 0.4709066666666667 0.4182533333333333
0.0088233333333334 0.0994066666666666 0.3808233333333332
0.0748183333333333 0.2312516666666666 0.4404133333333332
0.0043283333333333 0.1412416666666667 0.4016533333333333
0.0290933333333333 0.1904516666666666 0.4182533333333333
0.1297116666666666 0.3702883333333333 0.9118766666666666
0.1036266666666666 0.3963733333333333 0.9706666666666665
0.0750466666666667 0.4249533333333333 0.9684966666666665
0.0534016666666667 0.4465983333333333 0.9467266666666665
0.0398366666666666 0.4601633333333333 0.9083366666666663
0.0652716666666666 0.4347283333333333 0.8483266666666666
0.0948316666666666 0.4051683333333332 0.8497866666666666
0.1167016666666667 0.3832983333333332 0.8720366666666663
0.4239166666666665 0.2660733333333333 0.7141566666666664
0.4897666666666666 0.3979183333333333 0.7737466666666665
0.4702466666666666 0.3079083333333333 0.7349866666666666
0.4946916666666666 0.3571183333333333 0.7515866666666664
0.1297116666666666 0.2594233333333333 0.9118766666666666
0.1036266666666666 0.2072533333333333 0.9706666666666665
0.0750466666666667 0.1500933333333334 0.9684966666666665
0.0534016666666667 0.1068033333333333 0.9467266666666665
0.0398366666666667 0.0796733333333333 0.9083366666666663
0.0652716666666667 0.1305433333333332 0.8483266666666666
0.0948316666666667 0.1896633333333333 0.8497866666666666
0.1167016666666666 0.2334033333333334 0.8720366666666663
0.2339266666666666 0.1578433333333333 0.7141566666666664
0.1020816666666666 0.0918483333333333 0.7737466666666665
0.1920916666666666 0.1623383333333333 0.7349866666666666
0.1428816666666666 0.1375733333333333 0.7515866666666664
0.2405766666666666 0.3702883333333333 0.9118766666666666
0.2927466666666666 0.3963733333333333 0.9706666666666665
0.3499066666666666 0.4249533333333333 0.9684966666666665
0.3931966666666666 0.4465983333333333 0.9467266666666665
0.4203266666666666 0.4601633333333333 0.9083366666666663
0.3694566666666666 0.4347283333333333 0.8483266666666666
0.3103366666666665 0.4051683333333332 0.8497866666666666
0.2665966666666665 0.3832983333333332 0.8720366666666663
0.3421566666666666 0.0760833333333334 0.7141566666666664
0.4081516666666666 0.0102333333333333 0.7737466666666665
0.3376616666666666 0.0297533333333333 0.7349866666666666
0.3624266666666667 0.0053083333333333 0.7515866666666664
0.2036216666666666 0.2963783333333332 0.4214566666666665
0.2297066666666666 0.2702933333333332 0.3626666666666666
0.2582866666666666 0.2417133333333333 0.3648366666666666
0.2799316666666666 0.2200683333333333 0.3866066666666666
0.2934966666666666 0.2065033333333332 0.4249966666666666
0.2680616666666666 0.2319383333333334 0.4850066666666665
0.2385016666666667 0.2614983333333334 0.4835466666666666
0.2166316666666667 0.2833683333333333 0.4612966666666666
0.0994066666666666 0.0905833333333332 0.6191766666666665
0.2312516666666666 0.1564333333333333 0.5595866666666666
0.1412416666666667 0.1369133333333333 0.5983466666666665
0.1904516666666666 0.1613583333333333 0.5817466666666665
0.2036216666666667 0.4072433333333333 0.4214566666666665
0.2297066666666666 0.4594133333333333 0.3626666666666666
0.2582866666666666 0.0165733333333333 0.3648366666666666
0.2799316666666666 0.0598633333333333 0.3866066666666666
0.2934966666666666 0.0869933333333333 0.4249966666666666
0.2680616666666666 0.0361233333333333 0.4850066666666665
0.2385016666666666 0.4770033333333333 0.4835466666666666
0.2166316666666667 0.4332633333333333 0.4612966666666666
0.4094166666666665 0.0088233333333334 0.6191766666666665
0.3435666666666666 0.0748183333333333 0.5595866666666666
0.3630866666666666 0.0043283333333333 0.5983466666666665
0.3386416666666666 0.0290933333333333 0.5817466666666665
0.0927566666666666 0.2963783333333332 0.4214566666666665
0.0405866666666667 0.2702933333333333 0.3626666666666666
0.4834266666666666 0.2417133333333333 0.3648366666666666
0.4401366666666665 0.2200683333333333 0.3866066666666666
0.4130066666666666 0.2065033333333333 0.4249966666666666
0.4638766666666665 0.2319383333333333 0.4850066666666665
0.0229966666666667 0.2614983333333333 0.4835466666666666
0.0667366666666667 0.2833683333333333 0.4612966666666666
0.4911766666666665 0.4005933333333332 0.6191766666666665
0.4251816666666666 0.2687483333333333 0.5595866666666666
0.4956716666666665 0.3587583333333332 0.5983466666666665
0.4709066666666666 0.3095483333333333 0.5817466666666665
0.4094166666666666 0.4005933333333332 0.6191766666666665
0.3435666666666666 0.2687483333333333 0.5595866666666666
0.3630866666666666 0.3587583333333332 0.5983466666666665
0.3386416666666666 0.3095483333333333 0.5817466666666665
0.0994066666666666 0.0088233333333334 0.6191766666666665
0.2312516666666666 0.0748183333333333 0.5595866666666666
0.1412416666666667 0.0043283333333333 0.5983466666666665
0.1904516666666666 0.0290933333333333 0.5817466666666665
0.4911766666666665 0.0905833333333332 0.6191766666666665
0.4251816666666667 0.1564333333333333 0.5595866666666666
0.4956716666666666 0.1369133333333333 0.5983466666666665
0.4709066666666667 0.1613583333333333 0.5817466666666665
0.2339266666666666 0.0760833333333334 0.7141566666666664
0.1020816666666666 0.0102333333333333 0.7737466666666665
0.1920916666666666 0.0297533333333333 0.7349866666666666
0.1428816666666666 0.0053083333333333 0.7515866666666664
0.4239166666666666 0.1578433333333333 0.7141566666666664
0.4897666666666666 0.0918483333333333 0.7737466666666665
0.4702466666666666 0.1623383333333333 0.7349866666666666
0.4946916666666666 0.1375733333333333 0.7515866666666664
0.3421566666666666 0.2660733333333333 0.7141566666666664
0.4081516666666666 0.3979183333333333 0.7737466666666665
0.3376616666666666 0.3079083333333333 0.7349866666666666
0.3624266666666666 0.3571183333333333 0.7515866666666664
0.4630449999999999 0.5369550000000000 0.2452100000000000
0.4369600000000000 0.5630400000000001 0.3039999999999999
0.4083800000000000 0.5916200000000001 0.3018299999999999
0.3867349999999999 0.6132649999999999 0.2800599999999999
0.3731699999999999 0.6268300000000000 0.2416699999999999
0.3986050000000000 0.6013949999999999 0.1816599999999999
0.4281650000000000 0.5718349999999999 0.1831199999999999
0.4500350000000000 0.5499650000000000 0.2053700000000000
0.2572500000000000 0.9327399999999999 0.0474900000000000
0.3230999999999999 0.5645849999999999 0.1070800000000000
0.3035800000000000 0.9745749999999999 0.0683200000000000
0.3280250000000000 0.5237849999999999 0.0849200000000000
0.4630449999999999 0.9260899999999999 0.2452100000000000
0.4369599999999999 0.8739199999999999 0.3039999999999999
0.4083800000000000 0.8167600000000000 0.3018299999999999
0.3867349999999999 0.7734699999999999 0.2800599999999999
0.3731699999999999 0.7463400000000000 0.2416699999999999
0.3986050000000000 0.7972100000000000 0.1816599999999999
0.4281650000000000 0.8563300000000000 0.1831199999999999
0.4500349999999999 0.9000699999999999 0.2053700000000000
0.0672600000000000 0.8245099999999999 0.0474900000000000
0.4354149999999999 0.7585149999999999 0.1070800000000000
0.0254250000000000 0.8290049999999999 0.0683200000000000
0.4762150000000000 0.8042400000000001 0.0849200000000000
0.0739100000000000 0.5369550000000000 0.2452100000000000
0.1260800000000000 0.5630400000000001 0.3039999999999999
0.1832400000000000 0.5916200000000001 0.3018299999999999
0.2265300000000000 0.6132649999999999 0.2800599999999999
0.2536599999999999 0.6268300000000000 0.2416699999999999
0.2027900000000000 0.6013949999999999 0.1816599999999999
0.1436700000000000 0.5718349999999999 0.1831199999999999
0.0999300000000000 0.5499650000000000 0.2053700000000000
0.1754900000000001 0.7427500000000000 0.0474900000000000
0.2414850000000000 0.6768999999999999 0.1070800000000000
0.1709950000000001 0.6964199999999999 0.0683200000000000
0.1957600000000000 0.6719750000000000 0.0849200000000000
0.0369550000000002 0.9630449999999999 0.7547899999999997
0.0630400000000001 0.9369600000000000 0.6959999999999997
0.0916200000000000 0.9083800000000000 0.6981699999999997
0.1132650000000000 0.8867349999999999 0.7199399999999999
0.1268300000000000 0.8731699999999999 0.7583299999999998
0.1013950000000001 0.8986050000000000 0.8183400000000000
0.0718350000000001 0.9281650000000000 0.8168799999999998
0.0499650000000001 0.9500350000000000 0.7946299999999998
0.4327400000000001 0.7572500000000001 0.9525099999999999
0.0645850000000001 0.8230999999999999 0.8929199999999998
0.4745750000000000 0.8035800000000000 0.9316799999999998
0.0237850000000001 0.8280250000000001 0.9150799999999999
0.0369550000000000 0.5739099999999999 0.7547899999999997
0.0630400000000000 0.6260799999999999 0.6959999999999997
0.0916200000000000 0.6832399999999998 0.6981699999999997
0.1132649999999999 0.7265299999999999 0.7199399999999999
0.1268300000000000 0.7536600000000000 0.7583299999999998
0.1013950000000001 0.7027900000000000 0.8183400000000000
0.0718350000000000 0.6436700000000000 0.8168799999999998
0.0499650000000000 0.5999300000000000 0.7946299999999998
0.2427500000000001 0.6754900000000000 0.9525099999999999
0.1769000000000000 0.7414849999999999 0.8929199999999998
0.1964200000000000 0.6709950000000000 0.9316799999999998
0.1719750000000000 0.6957599999999999 0.9150799999999999
0.4260900000000000 0.9630449999999999 0.7547899999999997
0.3739200000000000 0.9369600000000000 0.6959999999999997
0.3167600000000000 0.9083800000000000 0.6981699999999997
0.2734699999999999 0.8867349999999999 0.7199399999999999
0.2463400000000000 0.8731699999999999 0.7583299999999998
0.2972100000000000 0.8986050000000000 0.8183400000000000
0.3563300000000000 0.9281650000000000 0.8168799999999998
0.4000700000000000 0.9500350000000000 0.7946299999999998
0.3245099999999999 0.5672600000000000 0.9525099999999999
0.2585150000000001 0.9354150000000000 0.8929199999999998
0.3290050000000000 0.5254250000000001 0.9316799999999998
0.3042400000000001 0.9762150000000001 0.9150799999999999
0.2427500000000000 0.5672600000000000 0.9525099999999999
0.1769000000000001 0.9354150000000000 0.8929199999999998
0.1964200000000000 0.5254250000000001 0.9316799999999998
0.1719750000000001 0.9762150000000001 0.9150799999999999
0.4327400000000000 0.6754900000000000 0.9525099999999999
0.0645850000000000 0.7414849999999999 0.8929199999999998
0.4745750000000000 0.6709950000000000 0.9316799999999998
0.0237850000000001 0.6957599999999999 0.9150799999999999
0.3245100000000000 0.7572500000000001 0.9525099999999999
0.2585150000000001 0.8230999999999999 0.8929199999999998
0.3290049999999999 0.8035800000000000 0.9316799999999998
0.3042400000000000 0.8280250000000001 0.9150799999999999
0.0672600000000001 0.7427500000000000 0.0474900000000000
0.4354149999999999 0.6768999999999999 0.1070800000000000
0.0254250000000000 0.6964199999999999 0.0683200000000000
0.4762150000000000 0.6719750000000000 0.0849200000000000
0.2572500000000000 0.8245099999999999 0.0474900000000000
0.3231000000000000 0.7585149999999999 0.1070800000000000
0.3035800000000000 0.8290049999999999 0.0683200000000000
0.3280250000000000 0.8042400000000001 0.0849200000000000
0.1754900000000000 0.9327399999999999 0.0474900000000000
0.2414849999999999 0.5645849999999999 0.1070800000000000
0.1709950000000000 0.9745749999999999 0.0683200000000000
0.1957600000000000 0.5237849999999999 0.0849200000000000
0.2963783333333334 0.7036216666666665 0.5785433333333332
0.2702933333333332 0.7297066666666666 0.6373333333333332
0.2417133333333333 0.7582866666666667 0.6351633333333332
0.2200683333333334 0.7799316666666668 0.6133933333333332
0.2065033333333333 0.7934966666666665 0.5750033333333332
0.2319383333333333 0.7680616666666665 0.5149933333333332
0.2614983333333334 0.7385016666666665 0.5164533333333332
0.2833683333333333 0.7166316666666666 0.5387033333333332
0.0905833333333333 0.5994066666666668 0.3808233333333332
0.1564333333333333 0.7312516666666665 0.4404133333333332
0.1369133333333334 0.6412416666666667 0.4016533333333333
0.1613583333333333 0.6904516666666666 0.4182533333333333
0.2963783333333333 0.5927566666666665 0.5785433333333332
0.2702933333333333 0.5405866666666665 0.6373333333333332
0.2417133333333334 0.9834266666666666 0.6351633333333332
0.2200683333333334 0.9401366666666666 0.6133933333333332
0.2065033333333332 0.9130066666666664 0.5750033333333332
0.2319383333333333 0.9638766666666664 0.5149933333333332
0.2614983333333333 0.5229966666666667 0.5164533333333332
0.2833683333333333 0.5667366666666666 0.5387033333333332
0.4005933333333332 0.9911766666666666 0.3808233333333332
0.2687483333333333 0.9251816666666666 0.4404133333333332
0.3587583333333333 0.9956716666666665 0.4016533333333333
0.3095483333333333 0.9709066666666666 0.4182533333333333
0.4072433333333333 0.7036216666666666 0.5785433333333332
0.4594133333333333 0.7297066666666666 0.6373333333333332
0.0165733333333333 0.7582866666666667 0.6351633333333332
0.0598633333333335 0.7799316666666668 0.6133933333333332
0.0869933333333334 0.7934966666666665 0.5750033333333332
0.0361233333333334 0.7680616666666665 0.5149933333333332
0.4770033333333333 0.7385016666666665 0.5164533333333332
0.4332633333333332 0.7166316666666666 0.5387033333333332
0.0088233333333334 0.9094166666666667 0.3808233333333332
0.0748183333333333 0.8435666666666666 0.4404133333333332
0.0043283333333333 0.8630866666666664 0.4016533333333333
0.0290933333333333 0.8386416666666665 0.4182533333333333
0.3702883333333333 0.6297116666666667 0.0881233333333333
0.3963733333333332 0.6036266666666666 0.0293333333333333
0.4249533333333333 0.5750466666666667 0.0315033333333333
0.4465983333333333 0.5534016666666667 0.0532733333333333
0.4601633333333333 0.5398366666666666 0.0916633333333333
0.4347283333333333 0.5652716666666665 0.1516733333333333
0.4051683333333333 0.5948316666666665 0.1502133333333333
0.3832983333333333 0.6167016666666667 0.1279633333333333
0.2660733333333333 0.9239166666666666 0.2858433333333333
0.3979183333333333 0.9897666666666667 0.2262533333333333
0.3079083333333333 0.9702466666666666 0.2650133333333333
0.3571183333333333 0.9946916666666665 0.2484133333333333
0.3702883333333333 0.7405766666666665 0.0881233333333333
0.3963733333333332 0.7927466666666665 0.0293333333333333
0.4249533333333333 0.8499066666666665 0.0315033333333333
0.4465983333333333 0.8931966666666665 0.0532733333333333
0.4601633333333332 0.9203266666666665 0.0916633333333333
0.4347283333333333 0.8694566666666667 0.1516733333333333
0.4051683333333333 0.8103366666666666 0.1502133333333333
0.3832983333333332 0.7665966666666665 0.1279633333333333
0.0760833333333333 0.8421566666666666 0.2858433333333333
0.0102333333333333 0.9081516666666667 0.2262533333333333
0.0297533333333333 0.8376616666666665 0.2650133333333333
0.0053083333333333 0.8624266666666667 0.2484133333333333
0.2594233333333333 0.6297116666666667 0.0881233333333333
0.2072533333333333 0.6036266666666666 0.0293333333333333
0.1500933333333334 0.5750466666666667 0.0315033333333333
0.1068033333333334 0.5534016666666667 0.0532733333333333
0.0796733333333333 0.5398366666666666 0.0916633333333333
0.1305433333333332 0.5652716666666665 0.1516733333333333
0.1896633333333333 0.5948316666666665 0.1502133333333333
0.2334033333333334 0.6167016666666667 0.1279633333333333
0.1578433333333333 0.7339266666666665 0.2858433333333333
0.0918483333333333 0.6020816666666665 0.2262533333333333
0.1623383333333333 0.6920916666666665 0.2650133333333333
0.1375733333333333 0.6428816666666667 0.2484133333333333
0.0760833333333333 0.7339266666666665 0.2858433333333333
0.0102333333333333 0.6020816666666665 0.2262533333333333
0.0297533333333333 0.6920916666666665 0.2650133333333333
0.0053083333333333 0.6428816666666667 0.2484133333333333
0.2660733333333333 0.8421566666666666 0.2858433333333333
0.3979183333333333 0.9081516666666667 0.2262533333333333
0.3079083333333332 0.8376616666666665 0.2650133333333333
0.3571183333333333 0.8624266666666667 0.2484133333333333
0.1578433333333333 0.9239166666666666 0.2858433333333333
0.0918483333333333 0.9897666666666667 0.2262533333333333
0.1623383333333333 0.9702466666666666 0.2650133333333333
0.1375733333333333 0.9946916666666665 0.2484133333333333
0.4005933333333332 0.9094166666666667 0.3808233333333332
0.2687483333333334 0.8435666666666666 0.4404133333333332
0.3587583333333332 0.8630866666666664 0.4016533333333333
0.3095483333333333 0.8386416666666665 0.4182533333333333
0.0905833333333332 0.9911766666666666 0.3808233333333332
0.1564333333333333 0.9251816666666666 0.4404133333333332
0.1369133333333333 0.9956716666666665 0.4016533333333333
0.1613583333333332 0.9709066666666666 0.4182533333333333
0.0088233333333335 0.5994066666666668 0.3808233333333332
0.0748183333333333 0.7312516666666665 0.4404133333333332
0.0043283333333333 0.6412416666666667 0.4016533333333333
0.0290933333333333 0.6904516666666666 0.4182533333333333
0.1297116666666667 0.8702883333333333 0.9118766666666666
0.1036266666666667 0.8963733333333332 0.9706666666666665
0.0750466666666668 0.9249533333333333 0.9684966666666665
0.0534016666666668 0.9465983333333333 0.9467266666666665
0.0398366666666667 0.9601633333333331 0.9083366666666663
0.0652716666666667 0.9347283333333334 0.8483266666666666
0.0948316666666666 0.9051683333333334 0.8497866666666666
0.1167016666666669 0.8832983333333334 0.8720366666666663
0.4239166666666666 0.7660733333333334 0.7141566666666664
0.4897666666666667 0.8979183333333334 0.7737466666666665
0.4702466666666667 0.8079083333333333 0.7349866666666666
0.4946916666666666 0.8571183333333334 0.7515866666666664
0.1297116666666667 0.7594233333333333 0.9118766666666666
0.1036266666666667 0.7072533333333333 0.9706666666666665
0.0750466666666666 0.6500933333333334 0.9684966666666665
0.0534016666666667 0.6068033333333334 0.9467266666666665
0.0398366666666667 0.5796733333333333 0.9083366666666663
0.0652716666666667 0.6305433333333331 0.8483266666666666
0.0948316666666667 0.6896633333333333 0.8497866666666666
0.1167016666666666 0.7334033333333333 0.8720366666666663
0.2339266666666666 0.6578433333333332 0.7141566666666664
0.1020816666666667 0.5918483333333332 0.7737466666666665
0.1920916666666667 0.6623383333333331 0.7349866666666666
0.1428816666666667 0.6375733333333332 0.7515866666666664
0.2405766666666667 0.8702883333333333 0.9118766666666666
0.2927466666666667 0.8963733333333332 0.9706666666666665
0.3499066666666667 0.9249533333333333 0.9684966666666665
0.3931966666666666 0.9465983333333333 0.9467266666666665
0.4203266666666666 0.9601633333333331 0.9083366666666663
0.3694566666666667 0.9347283333333334 0.8483266666666666
0.3103366666666666 0.9051683333333334 0.8497866666666666
0.2665966666666667 0.8832983333333334 0.8720366666666663
0.3421566666666666 0.5760833333333333 0.7141566666666664
0.4081516666666666 0.5102333333333332 0.7737466666666665
0.3376616666666666 0.5297533333333332 0.7349866666666666
0.3624266666666666 0.5053083333333331 0.7515866666666664
0.2036216666666666 0.7963783333333331 0.4214566666666665
0.2297066666666666 0.7702933333333333 0.3626666666666666
0.2582866666666667 0.7417133333333333 0.3648366666666666
0.2799316666666667 0.7200683333333334 0.3866066666666666
0.2934966666666666 0.7065033333333333 0.4249966666666666
0.2680616666666667 0.7319383333333334 0.4850066666666665
0.2385016666666666 0.7614983333333333 0.4835466666666666
0.2166316666666667 0.7833683333333332 0.4612966666666666
0.0994066666666667 0.5905833333333332 0.6191766666666665
0.2312516666666666 0.6564333333333333 0.5595866666666666
0.1412416666666667 0.6369133333333333 0.5983466666666665
0.1904516666666667 0.6613583333333332 0.5817466666666665
0.2036216666666667 0.9072433333333332 0.4214566666666665
0.2297066666666666 0.9594133333333332 0.3626666666666666
0.2582866666666667 0.5165733333333333 0.3648366666666666
0.2799316666666667 0.5598633333333335 0.3866066666666666
0.2934966666666666 0.5869933333333333 0.4249966666666666
0.2680616666666666 0.5361233333333333 0.4850066666666665
0.2385016666666666 0.9770033333333330 0.4835466666666666
0.2166316666666666 0.9332633333333331 0.4612966666666666
0.4094166666666666 0.5088233333333334 0.6191766666666665
0.3435666666666667 0.5748183333333333 0.5595866666666666
0.3630866666666666 0.5043283333333332 0.5983466666666665
0.3386416666666666 0.5290933333333333 0.5817466666666665
0.0927566666666666 0.7963783333333331 0.4214566666666665
0.0405866666666666 0.7702933333333333 0.3626666666666666
0.4834266666666667 0.7417133333333333 0.3648366666666666
0.4401366666666667 0.7200683333333334 0.3866066666666666
0.4130066666666666 0.7065033333333333 0.4249966666666666
0.4638766666666666 0.7319383333333334 0.4850066666666665
0.0229966666666666 0.7614983333333333 0.4835466666666666
0.0667366666666667 0.7833683333333332 0.4612966666666666
0.4911766666666665 0.9005933333333334 0.6191766666666665
0.4251816666666666 0.7687483333333331 0.5595866666666666
0.4956716666666666 0.8587583333333334 0.5983466666666665
0.4709066666666666 0.8095483333333332 0.5817466666666665
0.4094166666666666 0.9005933333333334 0.6191766666666665
0.3435666666666666 0.7687483333333331 0.5595866666666666
0.3630866666666667 0.8587583333333334 0.5983466666666665
0.3386416666666666 0.8095483333333332 0.5817466666666665
0.0994066666666667 0.5088233333333334 0.6191766666666665
0.2312516666666667 0.5748183333333333 0.5595866666666666
0.1412416666666667 0.5043283333333332 0.5983466666666665
0.1904516666666666 0.5290933333333333 0.5817466666666665
0.4911766666666665 0.5905833333333332 0.6191766666666665
0.4251816666666666 0.6564333333333333 0.5595866666666666
0.4956716666666666 0.6369133333333333 0.5983466666666665
0.4709066666666667 0.6613583333333332 0.5817466666666665
0.2339266666666666 0.5760833333333333 0.7141566666666664
0.1020816666666667 0.5102333333333332 0.7737466666666665
0.1920916666666667 0.5297533333333332 0.7349866666666666
0.1428816666666667 0.5053083333333331 0.7515866666666664
0.4239166666666666 0.6578433333333332 0.7141566666666664
0.4897666666666666 0.5918483333333332 0.7737466666666665
0.4702466666666666 0.6623383333333331 0.7349866666666666
0.4946916666666666 0.6375733333333332 0.7515866666666664
0.3421566666666667 0.7660733333333334 0.7141566666666664
0.4081516666666667 0.8979183333333334 0.7737466666666665
0.3376616666666666 0.8079083333333333 0.7349866666666666
0.3624266666666667 0.8571183333333334 0.7515866666666664
0.9630449999999998 0.0369550000000000 0.2452100000000000
0.9369599999999999 0.0630400000000000 0.3039999999999999
0.9083799999999999 0.0916200000000000 0.3018299999999999
0.8867349999999999 0.1132650000000000 0.2800599999999999
0.8731699999999998 0.1268300000000000 0.2416699999999999
0.8986049999999998 0.1013950000000000 0.1816599999999999
0.9281649999999998 0.0718350000000000 0.1831199999999999
0.9500349999999999 0.0499650000000000 0.2053700000000000
0.7572499999999999 0.4327400000000000 0.0474900000000000
0.8230999999999998 0.0645850000000000 0.1070800000000000
0.8035799999999998 0.4745750000000000 0.0683200000000000
0.8280249999999998 0.0237850000000000 0.0849200000000000
0.9630449999999997 0.4260899999999999 0.2452100000000000
0.9369599999999999 0.3739200000000001 0.3039999999999999
0.9083799999999997 0.3167600000000000 0.3018299999999999
0.8867349999999999 0.2734699999999999 0.2800599999999999
0.8731699999999999 0.2463400000000000 0.2416699999999999
0.8986049999999999 0.2972100000000000 0.1816599999999999
0.9281649999999999 0.3563300000000000 0.1831199999999999
0.9500349999999997 0.4000699999999999 0.2053700000000000
0.5672599999999999 0.3245100000000000 0.0474900000000000
0.9354149999999998 0.2585150000000000 0.1070800000000000
0.5254249999999999 0.3290050000000000 0.0683200000000000
0.9762149999999999 0.3042400000000000 0.0849200000000000
0.5739099999999999 0.0369550000000000 0.2452100000000000
0.6260799999999999 0.0630400000000000 0.3039999999999999
0.6832399999999998 0.0916200000000000 0.3018299999999999
0.7265299999999999 0.1132650000000000 0.2800599999999999
0.7536599999999999 0.1268300000000000 0.2416699999999999
0.7027899999999999 0.1013950000000000 0.1816599999999999
0.6436699999999999 0.0718350000000000 0.1831199999999999
0.5999299999999999 0.0499650000000000 0.2053700000000000
0.6754899999999999 0.2427500000000000 0.0474900000000000
0.7414849999999998 0.1769000000000000 0.1070800000000000
0.6709949999999999 0.1964200000000000 0.0683200000000000
0.6957599999999998 0.1719750000000000 0.0849200000000000
0.5369549999999998 0.4630449999999999 0.7547899999999997
0.5630399999999999 0.4369600000000000 0.6959999999999997
0.5916199999999999 0.4083800000000000 0.6981699999999997
0.6132649999999998 0.3867349999999999 0.7199399999999999
0.6268299999999999 0.3731699999999999 0.7583299999999998
0.6013949999999999 0.3986050000000000 0.8183400000000000
0.5718349999999999 0.4281650000000000 0.8168799999999998
0.5499650000000000 0.4500350000000000 0.7946299999999998
0.9327399999999998 0.2572500000000000 0.9525099999999999
0.5645850000000000 0.3231000000000000 0.8929199999999998
0.9745749999999996 0.3035800000000000 0.9316799999999998
0.5237849999999998 0.3280250000000000 0.9150799999999999
0.5369550000000000 0.0739100000000000 0.7547899999999997
0.5630399999999999 0.1260800000000000 0.6959999999999997
0.5916199999999999 0.1832399999999999 0.6981699999999997
0.6132649999999998 0.2265300000000000 0.7199399999999999
0.6268300000000000 0.2536600000000000 0.7583299999999998
0.6013949999999999 0.2027900000000001 0.8183400000000000
0.5718349999999999 0.1436700000000000 0.8168799999999998
0.5499649999999999 0.0999299999999999 0.7946299999999998
0.7427499999999998 0.1754900000000000 0.9525099999999999
0.6768999999999999 0.2414850000000000 0.8929199999999998
0.6964200000000000 0.1709950000000000 0.9316799999999998
0.6719749999999999 0.1957600000000000 0.9150799999999999
0.9260899999999997 0.4630449999999999 0.7547899999999997
0.8739199999999998 0.4369600000000000 0.6959999999999997
0.8167599999999999 0.4083800000000000 0.6981699999999997
0.7734699999999999 0.3867349999999999 0.7199399999999999
0.7463399999999999 0.3731699999999999 0.7583299999999998
0.7972099999999999 0.3986050000000000 0.8183400000000000
0.8563299999999999 0.4281650000000000 0.8168799999999998
0.9000699999999998 0.4500350000000000 0.7946299999999998
0.8245099999999999 0.0672600000000000 0.9525099999999999
0.7585149999999999 0.4354150000000001 0.8929199999999998
0.8290049999999998 0.0254250000000000 0.9316799999999998
0.8042400000000001 0.4762150000000000 0.9150799999999999
0.7427499999999999 0.0672600000000000 0.9525099999999999
0.6769000000000001 0.4354150000000001 0.8929199999999998
0.6964199999999998 0.0254250000000000 0.9316799999999998
0.6719750000000000 0.4762150000000000 0.9150799999999999
0.9327399999999998 0.1754900000000000 0.9525099999999999
0.5645849999999999 0.2414850000000000 0.8929199999999998
0.9745749999999997 0.1709950000000000 0.9316799999999998
0.5237849999999998 0.1957600000000000 0.9150799999999999
0.8245099999999997 0.2572500000000000 0.9525099999999999
0.7585149999999999 0.3231000000000000 0.8929199999999998
0.8290049999999999 0.3035800000000000 0.9316799999999998
0.8042400000000000 0.3280250000000000 0.9150799999999999
0.5672599999999999 0.2427500000000000 0.0474900000000000
0.9354149999999998 0.1769000000000000 0.1070800000000000
0.5254249999999999 0.1964200000000000 0.0683200000000000
0.9762149999999998 0.1719750000000000 0.0849200000000000
0.7572499999999999 0.3245100000000000 0.0474900000000000
0.8230999999999998 0.2585150000000000 0.1070800000000000
0.8035799999999998 0.3290050000000000 0.0683200000000000
0.8280249999999999 0.3042400000000000 0.0849200000000000
0.6754899999999999 0.4327400000000000 0.0474900000000000
0.7414849999999998 0.0645850000000000 0.1070800000000000
0.6709949999999999 0.4745750000000000 0.0683200000000000
0.6957599999999998 0.0237850000000000 0.0849200000000000
0.7963783333333331 0.2036216666666666 0.5785433333333332
0.7702933333333331 0.2297066666666667 0.6373333333333332
0.7417133333333332 0.2582866666666666 0.6351633333333332
0.7200683333333332 0.2799316666666667 0.6133933333333332
0.7065033333333332 0.2934966666666666 0.5750033333333332
0.7319383333333332 0.2680616666666667 0.5149933333333332
0.7614983333333333 0.2385016666666666 0.5164533333333332
0.7833683333333331 0.2166316666666667 0.5387033333333332
0.5905833333333332 0.0994066666666666 0.3808233333333332
0.6564333333333331 0.2312516666666666 0.4404133333333332
0.6369133333333331 0.1412416666666667 0.4016533333333333
0.6613583333333330 0.1904516666666666 0.4182533333333333
0.7963783333333332 0.0927566666666666 0.5785433333333332
0.7702933333333331 0.0405866666666667 0.6373333333333332
0.7417133333333332 0.4834266666666666 0.6351633333333332
0.7200683333333332 0.4401366666666665 0.6133933333333332
0.7065033333333332 0.4130066666666666 0.5750033333333332
0.7319383333333331 0.4638766666666666 0.5149933333333332
0.7614983333333332 0.0229966666666667 0.5164533333333332
0.7833683333333332 0.0667366666666667 0.5387033333333332
0.9005933333333332 0.4911766666666666 0.3808233333333332
0.7687483333333331 0.4251816666666666 0.4404133333333332
0.8587583333333331 0.4956716666666666 0.4016533333333333
0.8095483333333331 0.4709066666666667 0.4182533333333333
0.9072433333333332 0.2036216666666667 0.5785433333333332
0.9594133333333329 0.2297066666666666 0.6373333333333332
0.5165733333333333 0.2582866666666666 0.6351633333333332
0.5598633333333333 0.2799316666666667 0.6133933333333332
0.5869933333333331 0.2934966666666666 0.5750033333333332
0.5361233333333332 0.2680616666666667 0.5149933333333332
0.9770033333333330 0.2385016666666666 0.5164533333333332
0.9332633333333331 0.2166316666666667 0.5387033333333332
0.5088233333333334 0.4094166666666667 0.3808233333333332
0.5748183333333331 0.3435666666666666 0.4404133333333332
0.5043283333333332 0.3630866666666666 0.4016533333333333
0.5290933333333332 0.3386416666666666 0.4182533333333333
0.8702883333333331 0.1297116666666667 0.0881233333333333
0.8963733333333330 0.1036266666666666 0.0293333333333333
0.9249533333333331 0.0750466666666667 0.0315033333333333
0.9465983333333331 0.0534016666666667 0.0532733333333333
0.9601633333333331 0.0398366666666666 0.0916633333333333
0.9347283333333333 0.0652716666666666 0.1516733333333333
0.9051683333333332 0.0948316666666666 0.1502133333333333
0.8832983333333331 0.1167016666666667 0.1279633333333333
0.7660733333333333 0.4239166666666666 0.2858433333333333
0.8979183333333332 0.4897666666666666 0.2262533333333333
0.8079083333333332 0.4702466666666666 0.2650133333333333
0.8571183333333332 0.4946916666666665 0.2484133333333333
0.8702883333333332 0.2405766666666667 0.0881233333333333
0.8963733333333330 0.2927466666666666 0.0293333333333333
0.9249533333333332 0.3499066666666666 0.0315033333333333
0.9465983333333332 0.3931966666666666 0.0532733333333333
0.9601633333333330 0.4203266666666666 0.0916633333333333
0.9347283333333332 0.3694566666666667 0.1516733333333333
0.9051683333333332 0.3103366666666666 0.1502133333333333
0.8832983333333332 0.2665966666666665 0.1279633333333333
0.5760833333333333 0.3421566666666666 0.2858433333333333
0.5102333333333333 0.4081516666666666 0.2262533333333333
0.5297533333333333 0.3376616666666666 0.2650133333333333
0.5053083333333332 0.3624266666666666 0.2484133333333333
0.7594233333333332 0.1297116666666667 0.0881233333333333
0.7072533333333332 0.1036266666666666 0.0293333333333333
0.6500933333333333 0.0750466666666667 0.0315033333333333
0.6068033333333333 0.0534016666666667 0.0532733333333333
0.5796733333333332 0.0398366666666667 0.0916633333333333
0.6305433333333331 0.0652716666666666 0.1516733333333333
0.6896633333333332 0.0948316666666666 0.1502133333333333
0.7334033333333333 0.1167016666666666 0.1279633333333333
0.6578433333333332 0.2339266666666666 0.2858433333333333
0.5918483333333332 0.1020816666666667 0.2262533333333333
0.6623383333333331 0.1920916666666667 0.2650133333333333
0.6375733333333332 0.1428816666666667 0.2484133333333333
0.5760833333333333 0.2339266666666666 0.2858433333333333
0.5102333333333332 0.1020816666666667 0.2262533333333333
0.5297533333333332 0.1920916666666667 0.2650133333333333
0.5053083333333332 0.1428816666666667 0.2484133333333333
0.7660733333333333 0.3421566666666666 0.2858433333333333
0.8979183333333333 0.4081516666666666 0.2262533333333333
0.8079083333333332 0.3376616666666666 0.2650133333333333
0.8571183333333332 0.3624266666666666 0.2484133333333333
0.6578433333333332 0.4239166666666666 0.2858433333333333
0.5918483333333332 0.4897666666666666 0.2262533333333333
0.6623383333333331 0.4702466666666666 0.2650133333333333
0.6375733333333332 0.4946916666666665 0.2484133333333333
0.9005933333333332 0.4094166666666667 0.3808233333333332
0.7687483333333331 0.3435666666666666 0.4404133333333332
0.8587583333333331 0.3630866666666666 0.4016533333333333
0.8095483333333331 0.3386416666666666 0.4182533333333333
0.5905833333333332 0.4911766666666666 0.3808233333333332
0.6564333333333331 0.4251816666666666 0.4404133333333332
0.6369133333333332 0.4956716666666666 0.4016533333333333
0.6613583333333332 0.4709066666666667 0.4182533333333333
0.5088233333333334 0.0994066666666666 0.3808233333333332
0.5748183333333332 0.2312516666666666 0.4404133333333332
0.5043283333333330 0.1412416666666667 0.4016533333333333
0.5290933333333331 0.1904516666666666 0.4182533333333333
0.6297116666666667 0.3702883333333333 0.9118766666666666
0.6036266666666665 0.3963733333333333 0.9706666666666665
0.5750466666666667 0.4249533333333333 0.9684966666666665
0.5534016666666666 0.4465983333333333 0.9467266666666665
0.5398366666666665 0.4601633333333333 0.9083366666666663
0.5652716666666665 0.4347283333333333 0.8483266666666666
0.5948316666666665 0.4051683333333332 0.8497866666666666
0.6167016666666666 0.3832983333333332 0.8720366666666663
0.9239166666666663 0.2660733333333333 0.7141566666666664
0.9897666666666664 0.3979183333333333 0.7737466666666665
0.9702466666666665 0.3079083333333333 0.7349866666666666
0.9946916666666665 0.3571183333333333 0.7515866666666664
0.6297116666666666 0.2594233333333333 0.9118766666666666
0.6036266666666665 0.2072533333333333 0.9706666666666665
0.5750466666666666 0.1500933333333334 0.9684966666666665
0.5534016666666666 0.1068033333333333 0.9467266666666665
0.5398366666666665 0.0796733333333333 0.9083366666666663
0.5652716666666665 0.1305433333333332 0.8483266666666666
0.5948316666666665 0.1896633333333333 0.8497866666666666
0.6167016666666667 0.2334033333333334 0.8720366666666663
0.7339266666666664 0.1578433333333333 0.7141566666666664
0.6020816666666665 0.0918483333333333 0.7737466666666665
0.6920916666666665 0.1623383333333333 0.7349866666666666
0.6428816666666666 0.1375733333333333 0.7515866666666664
0.7405766666666665 0.3702883333333333 0.9118766666666666
0.7927466666666665 0.3963733333333333 0.9706666666666665
0.8499066666666665 0.4249533333333333 0.9684966666666665
0.8931966666666664 0.4465983333333333 0.9467266666666665
0.9203266666666664 0.4601633333333333 0.9083366666666663
0.8694566666666664 0.4347283333333333 0.8483266666666666
0.8103366666666665 0.4051683333333332 0.8497866666666666
0.7665966666666665 0.3832983333333332 0.8720366666666663
0.8421566666666664 0.0760833333333334 0.7141566666666664
0.9081516666666666 0.0102333333333333 0.7737466666666665
0.8376616666666664 0.0297533333333333 0.7349866666666666
0.8624266666666665 0.0053083333333333 0.7515866666666664
0.7036216666666664 0.2963783333333332 0.4214566666666665
0.7297066666666666 0.2702933333333332 0.3626666666666666
0.7582866666666666 0.2417133333333333 0.3648366666666666
0.7799316666666666 0.2200683333333333 0.3866066666666666
0.7934966666666664 0.2065033333333332 0.4249966666666666
0.7680616666666665 0.2319383333333334 0.4850066666666665
0.7385016666666664 0.2614983333333334 0.4835466666666666
0.7166316666666664 0.2833683333333333 0.4612966666666666
0.5994066666666665 0.0905833333333332 0.6191766666666665
0.7312516666666664 0.1564333333333333 0.5595866666666666
0.6412416666666666 0.1369133333333333 0.5983466666666665
0.6904516666666666 0.1613583333333333 0.5817466666666665
0.7036216666666665 0.4072433333333333 0.4214566666666665
0.7297066666666666 0.4594133333333333 0.3626666666666666
0.7582866666666666 0.0165733333333333 0.3648366666666666
0.7799316666666666 0.0598633333333333 0.3866066666666666
0.7934966666666664 0.0869933333333333 0.4249966666666666
0.7680616666666664 0.0361233333333333 0.4850066666666665
0.7385016666666664 0.4770033333333333 0.4835466666666666
0.7166316666666664 0.4332633333333333 0.4612966666666666
0.9094166666666664 0.0088233333333334 0.6191766666666665
0.8435666666666665 0.0748183333333333 0.5595866666666666
0.8630866666666666 0.0043283333333333 0.5983466666666665
0.8386416666666664 0.0290933333333333 0.5817466666666665
0.5927566666666665 0.2963783333333332 0.4214566666666665
0.5405866666666665 0.2702933333333333 0.3626666666666666
0.9834266666666666 0.2417133333333333 0.3648366666666666
0.9401366666666665 0.2200683333333333 0.3866066666666666
0.9130066666666663 0.2065033333333333 0.4249966666666666
0.9638766666666663 0.2319383333333333 0.4850066666666665
0.5229966666666666 0.2614983333333333 0.4835466666666666
0.5667366666666666 0.2833683333333333 0.4612966666666666
0.9911766666666664 0.4005933333333332 0.6191766666666665
0.9251816666666665 0.2687483333333333 0.5595866666666666
0.9956716666666663 0.3587583333333332 0.5983466666666665
0.9709066666666665 0.3095483333333333 0.5817466666666665
0.9094166666666665 0.4005933333333332 0.6191766666666665
0.8435666666666666 0.2687483333333333 0.5595866666666666
0.8630866666666664 0.3587583333333332 0.5983466666666665
0.8386416666666664 0.3095483333333333 0.5817466666666665
0.5994066666666665 0.0088233333333334 0.6191766666666665
0.7312516666666664 0.0748183333333333 0.5595866666666666
0.6412416666666666 0.0043283333333333 0.5983466666666665
0.6904516666666665 0.0290933333333333 0.5817466666666665
0.9911766666666664 0.0905833333333332 0.6191766666666665
0.9251816666666663 0.1564333333333333 0.5595866666666666
0.9956716666666664 0.1369133333333333 0.5983466666666665
0.9709066666666666 0.1613583333333333 0.5817466666666665
0.7339266666666664 0.0760833333333334 0.7141566666666664
0.6020816666666665 0.0102333333333333 0.7737466666666665
0.6920916666666665 0.0297533333333333 0.7349866666666666
0.6428816666666666 0.0053083333333333 0.7515866666666664
0.9239166666666664 0.1578433333333333 0.7141566666666664
0.9897666666666665 0.0918483333333333 0.7737466666666665
0.9702466666666665 0.1623383333333333 0.7349866666666666
0.9946916666666664 0.1375733333333333 0.7515866666666664
0.8421566666666663 0.2660733333333333 0.7141566666666664
0.9081516666666665 0.3979183333333333 0.7737466666666665
0.8376616666666665 0.3079083333333333 0.7349866666666666
0.8624266666666665 0.3571183333333333 0.7515866666666664
0.9630449999999997 0.5369550000000000 0.2452100000000000
0.9369599999999999 0.5630400000000001 0.3039999999999999
0.9083799999999999 0.5916200000000001 0.3018299999999999
0.8867349999999999 0.6132649999999999 0.2800599999999999
0.8731699999999999 0.6268300000000000 0.2416699999999999
0.8986049999999999 0.6013949999999999 0.1816599999999999
0.9281649999999999 0.5718349999999999 0.1831199999999999
0.9500349999999999 0.5499650000000000 0.2053700000000000
0.7572499999999999 0.9327399999999999 0.0474900000000000
0.8230999999999998 0.5645849999999999 0.1070800000000000
0.8035799999999998 0.9745749999999999 0.0683200000000000
0.8280249999999999 0.5237849999999999 0.0849200000000000
0.9630449999999998 0.9260899999999999 0.2452100000000000
0.9369599999999999 0.8739199999999999 0.3039999999999999
0.9083799999999999 0.8167600000000000 0.3018299999999999
0.8867349999999999 0.7734699999999999 0.2800599999999999
0.8731699999999999 0.7463400000000000 0.2416699999999999
0.8986049999999999 0.7972100000000000 0.1816599999999999
0.9281649999999999 0.8563300000000000 0.1831199999999999
0.9500349999999999 0.9000699999999999 0.2053700000000000
0.5672599999999999 0.8245099999999999 0.0474900000000000
0.9354149999999999 0.7585149999999999 0.1070800000000000
0.5254250000000000 0.8290049999999999 0.0683200000000000
0.9762149999999999 0.8042400000000001 0.0849200000000000
0.5739099999999999 0.5369550000000000 0.2452100000000000
0.6260799999999999 0.5630400000000001 0.3039999999999999
0.6832399999999998 0.5916200000000001 0.3018299999999999
0.7265299999999999 0.6132649999999999 0.2800599999999999
0.7536599999999999 0.6268300000000000 0.2416699999999999
0.7027899999999999 0.6013949999999999 0.1816599999999999
0.6436699999999999 0.5718349999999999 0.1831199999999999
0.5999300000000000 0.5499650000000000 0.2053700000000000
0.6754900000000000 0.7427500000000000 0.0474900000000000
0.7414849999999998 0.6768999999999999 0.1070800000000000
0.6709949999999999 0.6964199999999999 0.0683200000000000
0.6957599999999998 0.6719750000000000 0.0849200000000000
0.5369550000000000 0.9630449999999999 0.7547899999999997
0.5630400000000000 0.9369600000000000 0.6959999999999997
0.5916200000000000 0.9083800000000000 0.6981699999999997
0.6132649999999998 0.8867349999999999 0.7199399999999999
0.6268299999999999 0.8731699999999999 0.7583299999999998
0.6013950000000000 0.8986050000000000 0.8183400000000000
0.5718350000000000 0.9281650000000000 0.8168799999999998
0.5499650000000000 0.9500350000000000 0.7946299999999998
0.9327400000000000 0.7572500000000001 0.9525099999999999
0.5645850000000000 0.8230999999999999 0.8929199999999998
0.9745749999999999 0.8035800000000000 0.9316799999999998
0.5237849999999999 0.8280250000000001 0.9150799999999999
0.5369550000000000 0.5739099999999999 0.7547899999999997
0.5630399999999999 0.6260799999999999 0.6959999999999997
0.5916199999999999 0.6832399999999998 0.6981699999999997
0.6132649999999998 0.7265299999999999 0.7199399999999999
0.6268299999999999 0.7536600000000000 0.7583299999999998
0.6013950000000000 0.7027900000000000 0.8183400000000000
0.5718349999999999 0.6436700000000000 0.8168799999999998
0.5499650000000000 0.5999300000000000 0.7946299999999998
0.7427500000000000 0.6754900000000000 0.9525099999999999
0.6768999999999999 0.7414849999999999 0.8929199999999998
0.6964200000000000 0.6709950000000000 0.9316799999999998
0.6719750000000000 0.6957599999999999 0.9150799999999999
0.9260900000000000 0.9630449999999999 0.7547899999999997
0.8739199999999999 0.9369600000000000 0.6959999999999997
0.8167600000000000 0.9083800000000000 0.6981699999999997
0.7734700000000000 0.8867349999999999 0.7199399999999999
0.7463399999999999 0.8731699999999999 0.7583299999999998
0.7972099999999999 0.8986050000000000 0.8183400000000000
0.8563300000000000 0.9281650000000000 0.8168799999999998
0.9000699999999999 0.9500350000000000 0.7946299999999998
0.8245099999999999 0.5672600000000000 0.9525099999999999
0.7585150000000001 0.9354150000000000 0.8929199999999998
0.8290049999999999 0.5254250000000001 0.9316799999999998
0.8042400000000001 0.9762150000000001 0.9150799999999999
0.7427499999999999 0.5672600000000000 0.9525099999999999
0.6769000000000001 0.9354150000000000 0.8929199999999998
0.6964200000000000 0.5254250000000001 0.9316799999999998
0.6719750000000000 0.9762150000000001 0.9150799999999999
0.9327399999999999 0.6754900000000000 0.9525099999999999
0.5645850000000000 0.7414849999999999 0.8929199999999998
0.9745749999999999 0.6709950000000000 0.9316799999999998
0.5237849999999999 0.6957599999999999 0.9150799999999999
0.8245100000000000 0.7572500000000001 0.9525099999999999
0.7585150000000001 0.8230999999999999 0.8929199999999998
0.8290049999999999 0.8035800000000000 0.9316799999999998
0.8042400000000000 0.8280250000000001 0.9150799999999999
0.5672600000000000 0.7427500000000000 0.0474900000000000
0.9354149999999999 0.6768999999999999 0.1070800000000000
0.5254250000000000 0.6964199999999999 0.0683200000000000
0.9762149999999999 0.6719750000000000 0.0849200000000000
0.7572499999999999 0.8245099999999999 0.0474900000000000
0.8230999999999998 0.7585149999999999 0.1070800000000000
0.8035799999999998 0.8290049999999999 0.0683200000000000
0.8280249999999999 0.8042400000000001 0.0849200000000000
0.6754899999999999 0.9327399999999999 0.0474900000000000
0.7414849999999998 0.5645849999999999 0.1070800000000000
0.6709949999999999 0.9745749999999999 0.0683200000000000
0.6957599999999998 0.5237849999999999 0.0849200000000000
0.7963783333333333 0.7036216666666665 0.5785433333333332
0.7702933333333332 0.7297066666666666 0.6373333333333332
0.7417133333333332 0.7582866666666667 0.6351633333333332
0.7200683333333333 0.7799316666666668 0.6133933333333332
0.7065033333333332 0.7934966666666665 0.5750033333333332
0.7319383333333332 0.7680616666666665 0.5149933333333332
0.7614983333333333 0.7385016666666665 0.5164533333333332
0.7833683333333332 0.7166316666666666 0.5387033333333332
0.5905833333333332 0.5994066666666668 0.3808233333333332
0.6564333333333332 0.7312516666666665 0.4404133333333332
0.6369133333333332 0.6412416666666667 0.4016533333333333
0.6613583333333332 0.6904516666666666 0.4182533333333333
0.7963783333333332 0.5927566666666665 0.5785433333333332
0.7702933333333332 0.5405866666666665 0.6373333333333332
0.7417133333333332 0.9834266666666666 0.6351633333333332
0.7200683333333333 0.9401366666666666 0.6133933333333332
0.7065033333333330 0.9130066666666664 0.5750033333333332
0.7319383333333332 0.9638766666666664 0.5149933333333332
0.7614983333333333 0.5229966666666667 0.5164533333333332
0.7833683333333332 0.5667366666666666 0.5387033333333332
0.9005933333333332 0.9911766666666666 0.3808233333333332
0.7687483333333333 0.9251816666666666 0.4404133333333332
0.8587583333333331 0.9956716666666665 0.4016533333333333
0.8095483333333331 0.9709066666666666 0.4182533333333333
0.9072433333333333 0.7036216666666666 0.5785433333333332
0.9594133333333331 0.7297066666666666 0.6373333333333332
0.5165733333333332 0.7582866666666667 0.6351633333333332
0.5598633333333334 0.7799316666666668 0.6133933333333332
0.5869933333333331 0.7934966666666665 0.5750033333333332
0.5361233333333332 0.7680616666666665 0.5149933333333332
0.9770033333333331 0.7385016666666665 0.5164533333333332
0.9332633333333332 0.7166316666666666 0.5387033333333332
0.5088233333333334 0.9094166666666667 0.3808233333333332
0.5748183333333332 0.8435666666666666 0.4404133333333332
0.5043283333333332 0.8630866666666664 0.4016533333333333
0.5290933333333332 0.8386416666666665 0.4182533333333333
0.8702883333333332 0.6297116666666667 0.0881233333333333
0.8963733333333331 0.6036266666666666 0.0293333333333333
0.9249533333333332 0.5750466666666667 0.0315033333333333
0.9465983333333331 0.5534016666666667 0.0532733333333333
0.9601633333333331 0.5398366666666666 0.0916633333333333
0.9347283333333333 0.5652716666666665 0.1516733333333333
0.9051683333333332 0.5948316666666665 0.1502133333333333
0.8832983333333332 0.6167016666666667 0.1279633333333333
0.7660733333333333 0.9239166666666666 0.2858433333333333
0.8979183333333333 0.9897666666666667 0.2262533333333333
0.8079083333333332 0.9702466666666666 0.2650133333333333
0.8571183333333332 0.9946916666666665 0.2484133333333333
0.8702883333333331 0.7405766666666665 0.0881233333333333
0.8963733333333331 0.7927466666666665 0.0293333333333333
0.9249533333333332 0.8499066666666665 0.0315033333333333
0.9465983333333331 0.8931966666666665 0.0532733333333333
0.9601633333333330 0.9203266666666665 0.0916633333333333
0.9347283333333333 0.8694566666666667 0.1516733333333333
0.9051683333333334 0.8103366666666666 0.1502133333333333
0.8832983333333331 0.7665966666666665 0.1279633333333333
0.5760833333333332 0.8421566666666666 0.2858433333333333
0.5102333333333333 0.9081516666666667 0.2262533333333333
0.5297533333333332 0.8376616666666665 0.2650133333333333
0.5053083333333332 0.8624266666666667 0.2484133333333333
0.7594233333333332 0.6297116666666667 0.0881233333333333
0.7072533333333332 0.6036266666666666 0.0293333333333333
0.6500933333333334 0.5750466666666667 0.0315033333333333
0.6068033333333333 0.5534016666666667 0.0532733333333333
0.5796733333333332 0.5398366666666666 0.0916633333333333
0.6305433333333331 0.5652716666666665 0.1516733333333333
0.6896633333333332 0.5948316666666665 0.1502133333333333
0.7334033333333333 0.6167016666666667 0.1279633333333333
0.6578433333333332 0.7339266666666665 0.2858433333333333
0.5918483333333332 0.6020816666666665 0.2262533333333333
0.6623383333333331 0.6920916666666665 0.2650133333333333
0.6375733333333332 0.6428816666666667 0.2484133333333333
0.5760833333333332 0.7339266666666665 0.2858433333333333
0.5102333333333332 0.6020816666666665 0.2262533333333333
0.5297533333333332 0.6920916666666665 0.2650133333333333
0.5053083333333332 0.6428816666666667 0.2484133333333333
0.7660733333333333 0.8421566666666666 0.2858433333333333
0.8979183333333333 0.9081516666666667 0.2262533333333333
0.8079083333333332 0.8376616666666665 0.2650133333333333
0.8571183333333332 0.8624266666666667 0.2484133333333333
0.6578433333333332 0.9239166666666666 0.2858433333333333
0.5918483333333333 0.9897666666666667 0.2262533333333333
0.6623383333333331 0.9702466666666666 0.2650133333333333
0.6375733333333332 0.9946916666666665 0.2484133333333333
0.9005933333333332 0.9094166666666667 0.3808233333333332
0.7687483333333333 0.8435666666666666 0.4404133333333332
0.8587583333333331 0.8630866666666664 0.4016533333333333
0.8095483333333331 0.8386416666666665 0.4182533333333333
0.5905833333333332 0.9911766666666666 0.3808233333333332
0.6564333333333332 0.9251816666666666 0.4404133333333332
0.6369133333333332 0.9956716666666665 0.4016533333333333
0.6613583333333330 0.9709066666666666 0.4182533333333333
0.5088233333333334 0.5994066666666668 0.3808233333333332
0.5748183333333332 0.7312516666666665 0.4404133333333332
0.5043283333333332 0.6412416666666667 0.4016533333333333
0.5290933333333332 0.6904516666666666 0.4182533333333333
0.6297116666666667 0.8702883333333333 0.9118766666666666
0.6036266666666666 0.8963733333333332 0.9706666666666665
0.5750466666666667 0.9249533333333333 0.9684966666666665
0.5534016666666667 0.9465983333333333 0.9467266666666665
0.5398366666666666 0.9601633333333331 0.9083366666666663
0.5652716666666666 0.9347283333333334 0.8483266666666666
0.5948316666666665 0.9051683333333334 0.8497866666666666
0.6167016666666667 0.8832983333333334 0.8720366666666663
0.9239166666666665 0.7660733333333334 0.7141566666666664
0.9897666666666667 0.8979183333333334 0.7737466666666665
0.9702466666666666 0.8079083333333333 0.7349866666666666
0.9946916666666665 0.8571183333333334 0.7515866666666664
0.6297116666666667 0.7594233333333333 0.9118766666666666
0.6036266666666666 0.7072533333333333 0.9706666666666665
0.5750466666666666 0.6500933333333334 0.9684966666666665
0.5534016666666667 0.6068033333333334 0.9467266666666665
0.5398366666666666 0.5796733333333333 0.9083366666666663
0.5652716666666666 0.6305433333333331 0.8483266666666666
0.5948316666666666 0.6896633333333333 0.8497866666666666
0.6167016666666666 0.7334033333333333 0.8720366666666663
0.7339266666666665 0.6578433333333332 0.7141566666666664
0.6020816666666665 0.5918483333333332 0.7737466666666665
0.6920916666666665 0.6623383333333331 0.7349866666666666
0.6428816666666667 0.6375733333333332 0.7515866666666664
0.7405766666666667 0.8702883333333333 0.9118766666666666
0.7927466666666666 0.8963733333333332 0.9706666666666665
0.8499066666666666 0.9249533333333333 0.9684966666666665
0.8931966666666666 0.9465983333333333 0.9467266666666665
0.9203266666666665 0.9601633333333331 0.9083366666666663
0.8694566666666667 0.9347283333333334 0.8483266666666666
0.8103366666666666 0.9051683333333334 0.8497866666666666
0.7665966666666666 0.8832983333333334 0.8720366666666663
0.8421566666666666 0.5760833333333333 0.7141566666666664
0.9081516666666666 0.5102333333333332 0.7737466666666665
0.8376616666666665 0.5297533333333332 0.7349866666666666
0.8624266666666666 0.5053083333333331 0.7515866666666664
0.7036216666666664 0.7963783333333331 0.4214566666666665
0.7297066666666666 0.7702933333333333 0.3626666666666666
0.7582866666666667 0.7417133333333333 0.3648366666666666
0.7799316666666667 0.7200683333333334 0.3866066666666666
0.7934966666666665 0.7065033333333333 0.4249966666666666
0.7680616666666665 0.7319383333333334 0.4850066666666665
0.7385016666666664 0.7614983333333333 0.4835466666666666
0.7166316666666664 0.7833683333333332 0.4612966666666666
0.5994066666666665 0.5905833333333332 0.6191766666666665
0.7312516666666665 0.6564333333333333 0.5595866666666666
0.6412416666666667 0.6369133333333333 0.5983466666666665
0.6904516666666667 0.6613583333333332 0.5817466666666665
0.7036216666666666 0.9072433333333332 0.4214566666666665
0.7297066666666666 0.9594133333333332 0.3626666666666666
0.7582866666666666 0.5165733333333333 0.3648366666666666
0.7799316666666666 0.5598633333333335 0.3866066666666666
0.7934966666666664 0.5869933333333333 0.4249966666666666
0.7680616666666664 0.5361233333333333 0.4850066666666665
0.7385016666666664 0.9770033333333330 0.4835466666666666
0.7166316666666666 0.9332633333333331 0.4612966666666666
0.9094166666666664 0.5088233333333334 0.6191766666666665
0.8435666666666666 0.5748183333333333 0.5595866666666666
0.8630866666666666 0.5043283333333332 0.5983466666666665
0.8386416666666665 0.5290933333333333 0.5817466666666665
0.5927566666666664 0.7963783333333331 0.4214566666666665
0.5405866666666667 0.7702933333333333 0.3626666666666666
0.9834266666666666 0.7417133333333333 0.3648366666666666
0.9401366666666666 0.7200683333333334 0.3866066666666666
0.9130066666666665 0.7065033333333333 0.4249966666666666
0.9638766666666664 0.7319383333333334 0.4850066666666665
0.5229966666666666 0.7614983333333333 0.4835466666666666
0.5667366666666666 0.7833683333333332 0.4612966666666666
0.9911766666666665 0.9005933333333334 0.6191766666666665
0.9251816666666666 0.7687483333333331 0.5595866666666666
0.9956716666666665 0.8587583333333334 0.5983466666666665
0.9709066666666665 0.8095483333333332 0.5817466666666665
0.9094166666666665 0.9005933333333334 0.6191766666666665
0.8435666666666665 0.7687483333333331 0.5595866666666666
0.8630866666666666 0.8587583333333334 0.5983466666666665
0.8386416666666665 0.8095483333333332 0.5817466666666665
0.5994066666666665 0.5088233333333334 0.6191766666666665
0.7312516666666665 0.5748183333333333 0.5595866666666666
0.6412416666666666 0.5043283333333332 0.5983466666666665
0.6904516666666666 0.5290933333333333 0.5817466666666665
0.9911766666666665 0.5905833333333332 0.6191766666666665
0.9251816666666666 0.6564333333333333 0.5595866666666666
0.9956716666666664 0.6369133333333333 0.5983466666666665
0.9709066666666666 0.6613583333333332 0.5817466666666665
0.7339266666666666 0.5760833333333333 0.7141566666666664
0.6020816666666665 0.5102333333333332 0.7737466666666665
0.6920916666666667 0.5297533333333332 0.7349866666666666
0.6428816666666666 0.5053083333333331 0.7515866666666664
0.9239166666666665 0.6578433333333332 0.7141566666666664
0.9897666666666665 0.5918483333333332 0.7737466666666665
0.9702466666666665 0.6623383333333331 0.7349866666666666
0.9946916666666664 0.6375733333333332 0.7515866666666664
0.8421566666666667 0.7660733333333334 0.7141566666666664
0.9081516666666666 0.8979183333333334 0.7737466666666665
0.8376616666666665 0.8079083333333333 0.7349866666666666
0.8624266666666667 0.8571183333333334 0.7515866666666664
